**************************************************************************************************************************** 
ELEMENT_1: 
**************************************************************************************************************************** 
	 Maximum stress: 

	 	 	 	 	 	 	 	 	 Max value [MPa] Element ID 	 	 Material 
	    Sigma_xx           0.0000          1                PAINT 
	    Sigma_yy           0.0000          1                PAINT 
	    Sigma_xy           0.0000          1                PAINT 
	    Sigma_xz           0.0000          1                PAINT 
	    Sigma_yz           0.0000          1                PAINT 
	    Sigma_zz           0.0000          1                PAINT 

	 Minimum stress: 

	 	 	 	 	 	 	 	 	 Min value [MPa] Element ID 	 	 Material 
	   Sigma_xx           0.0000          1                PAINT 
	   Sigma_yy           0.0000          1                PAINT 
	   Sigma_xy           0.0000          1                PAINT 
	   Sigma_xz           0.0000          1                PAINT 
	   Sigma_yz           0.0000          1                PAINT 
	   Sigma_zz           0.0000          1                PAINT 

**************************************************************************************************************************** 
	 Element:   Material        sigma_xx [Mpa]  sigma_yy [Mpa]  sigma_xy [Mpa]  sigma_xz [Mpa]  sigma_yz [Mpa]  sigma_zz [Mpa]  
         1           PAINT          0.0000          0.0000          0.0000          0.0000          0.0000          0.0000
         2           PAINT          0.0000          0.0000          0.0000          0.0000          0.0000          0.0000
         3           PAINT          0.0000          0.0000          0.0000          0.0000          0.0000          0.0000
         4           PAINT          0.0000          0.0000          0.0000          0.0000          0.0000          0.0000
         5           PAINT          0.0000          0.0000          0.0000          0.0000          0.0000          0.0000
         6           PAINT          0.0000          0.0000          0.0000          0.0000          0.0000          0.0000
         7           PAINT          0.0000          0.0000          0.0000          0.0000          0.0000          0.0000
         8           PAINT          0.0000          0.0000          0.0000          0.0000          0.0000          0.0000
         9           PAINT          0.0000          0.0000          0.0000          0.0000          0.0000          0.0000
        10           PAINT          0.0000          0.0000          0.0000          0.0000          0.0000          0.0000
        11           PAINT          0.0000          0.0000          0.0000          0.0000          0.0000          0.0000
        12           PAINT          0.0000          0.0000          0.0000          0.0000          0.0000          0.0000
       279        TRIAXIAL          0.0000          0.0000          0.0000          0.0000          0.0000          0.0000
       280        TRIAXIAL          0.0000          0.0000          0.0000          0.0000          0.0000          0.0000
       281        TRIAXIAL          0.0000          0.0000          0.0000          0.0000          0.0000          0.0000
       282        TRIAXIAL          0.0000          0.0000          0.0000          0.0000          0.0000          0.0000
       283        TRIAXIAL          0.0000          0.0000          0.0000          0.0000          0.0000          0.0000
       284        TRIAXIAL          0.0000          0.0000          0.0000          0.0000          0.0000          0.0000
       285        TRIAXIAL          0.0000          0.0000          0.0000          0.0000          0.0000          0.0000
       286        TRIAXIAL          0.0000          0.0000          0.0000          0.0000          0.0000          0.0000
       287        TRIAXIAL          0.0000          0.0000          0.0000          0.0000          0.0000          0.0000
       288        TRIAXIAL          0.0000          0.0000          0.0000          0.0000          0.0000          0.0000
       289        TRIAXIAL          0.0000          0.0000          0.0000          0.0000          0.0000          0.0000
       290        TRIAXIAL          0.0000          0.0000          0.0000          0.0000          0.0000          0.0000
       557           BALSA          0.0000          0.0000          0.0000          0.0000          0.0000          0.0000
       558           BALSA          0.0000          0.0000          0.0000          0.0000          0.0000          0.0000
       559           BALSA          0.0000          0.0000          0.0000          0.0000          0.0000          0.0000
       560           BALSA          0.0000          0.0000          0.0000          0.0000          0.0000          0.0000
       561           BALSA          0.0000          0.0000          0.0000          0.0000          0.0000          0.0000
       562           BALSA          0.0000          0.0000          0.0000          0.0000          0.0000          0.0000
       563           BALSA          0.0000          0.0000          0.0000          0.0000          0.0000          0.0000
       564           BALSA          0.0000          0.0000          0.0000          0.0000          0.0000          0.0000
       565           BALSA          0.0000          0.0000          0.0000          0.0000          0.0000          0.0000
       566           BALSA          0.0000          0.0000          0.0000          0.0000          0.0000          0.0000
       567           BALSA          0.0000          0.0000          0.0000          0.0000          0.0000          0.0000
       568           BALSA          0.0000          0.0000          0.0000          0.0000          0.0000          0.0000
       835        TRIAXIAL          0.0000          0.0000          0.0000          0.0000          0.0000          0.0000
       836        TRIAXIAL          0.0000          0.0000          0.0000          0.0000          0.0000          0.0000
       837        TRIAXIAL          0.0000          0.0000          0.0000          0.0000          0.0000          0.0000
       838        TRIAXIAL          0.0000          0.0000          0.0000          0.0000          0.0000          0.0000
       839        TRIAXIAL          0.0000          0.0000          0.0000          0.0000          0.0000          0.0000
       840        TRIAXIAL          0.0000          0.0000          0.0000          0.0000          0.0000          0.0000
       841        TRIAXIAL          0.0000          0.0000          0.0000          0.0000          0.0000          0.0000
       842        TRIAXIAL          0.0000          0.0000          0.0000          0.0000          0.0000          0.0000
       843        TRIAXIAL          0.0000          0.0000          0.0000          0.0000          0.0000          0.0000
       844        TRIAXIAL          0.0000          0.0000          0.0000          0.0000          0.0000          0.0000
       845        TRIAXIAL          0.0000          0.0000          0.0000          0.0000          0.0000          0.0000
       846        TRIAXIAL          0.0000          0.0000          0.0000          0.0000          0.0000          0.0000
**************************************************************************************************************************** 
ELEMENT_2: 
**************************************************************************************************************************** 
	 Maximum stress: 

	 	 	 	 	 	 	 	 	 Max value [MPa] Element ID 	 	 Material 
	    Sigma_xx           0.0000         13                PAINT 
	    Sigma_yy           0.0000         13                PAINT 
	    Sigma_xy           0.0000         13                PAINT 
	    Sigma_xz           0.0000         13                PAINT 
	    Sigma_yz           0.0000         13                PAINT 
	    Sigma_zz           0.0000         13                PAINT 

	 Minimum stress: 

	 	 	 	 	 	 	 	 	 Min value [MPa] Element ID 	 	 Material 
	   Sigma_xx           0.0000         13                PAINT 
	   Sigma_yy           0.0000         13                PAINT 
	   Sigma_xy           0.0000         13                PAINT 
	   Sigma_xz           0.0000         13                PAINT 
	   Sigma_yz           0.0000         13                PAINT 
	   Sigma_zz           0.0000         13                PAINT 

**************************************************************************************************************************** 
	 Element:   Material        sigma_xx [Mpa]  sigma_yy [Mpa]  sigma_xy [Mpa]  sigma_xz [Mpa]  sigma_yz [Mpa]  sigma_zz [Mpa]  
        13           PAINT          0.0000          0.0000          0.0000          0.0000          0.0000          0.0000
        14           PAINT          0.0000          0.0000          0.0000          0.0000          0.0000          0.0000
        15           PAINT          0.0000          0.0000          0.0000          0.0000          0.0000          0.0000
        16           PAINT          0.0000          0.0000          0.0000          0.0000          0.0000          0.0000
        17           PAINT          0.0000          0.0000          0.0000          0.0000          0.0000          0.0000
        18           PAINT          0.0000          0.0000          0.0000          0.0000          0.0000          0.0000
        19           PAINT          0.0000          0.0000          0.0000          0.0000          0.0000          0.0000
        20           PAINT          0.0000          0.0000          0.0000          0.0000          0.0000          0.0000
        21           PAINT          0.0000          0.0000          0.0000          0.0000          0.0000          0.0000
        22           PAINT          0.0000          0.0000          0.0000          0.0000          0.0000          0.0000
        23           PAINT          0.0000          0.0000          0.0000          0.0000          0.0000          0.0000
        24           PAINT          0.0000          0.0000          0.0000          0.0000          0.0000          0.0000
        25           PAINT          0.0000          0.0000          0.0000          0.0000          0.0000          0.0000
        26           PAINT          0.0000          0.0000          0.0000          0.0000          0.0000          0.0000
        27           PAINT          0.0000          0.0000          0.0000          0.0000          0.0000          0.0000
        28           PAINT          0.0000          0.0000          0.0000          0.0000          0.0000          0.0000
        29           PAINT          0.0000          0.0000          0.0000          0.0000          0.0000          0.0000
        30           PAINT          0.0000          0.0000          0.0000          0.0000          0.0000          0.0000
        31           PAINT          0.0000          0.0000          0.0000          0.0000          0.0000          0.0000
        32           PAINT          0.0000          0.0000          0.0000          0.0000          0.0000          0.0000
        33           PAINT          0.0000          0.0000          0.0000          0.0000          0.0000          0.0000
        34           PAINT          0.0000          0.0000          0.0000          0.0000          0.0000          0.0000
        35           PAINT          0.0000          0.0000          0.0000          0.0000          0.0000          0.0000
        36           PAINT          0.0000          0.0000          0.0000          0.0000          0.0000          0.0000
        37           PAINT          0.0000          0.0000          0.0000          0.0000          0.0000          0.0000
        38           PAINT          0.0000          0.0000          0.0000          0.0000          0.0000          0.0000
        39           PAINT          0.0000          0.0000          0.0000          0.0000          0.0000          0.0000
        40           PAINT          0.0000          0.0000          0.0000          0.0000          0.0000          0.0000
        41           PAINT          0.0000          0.0000          0.0000          0.0000          0.0000          0.0000
        42           PAINT          0.0000          0.0000          0.0000          0.0000          0.0000          0.0000
        43           PAINT          0.0000          0.0000          0.0000          0.0000          0.0000          0.0000
        44           PAINT          0.0000          0.0000          0.0000          0.0000          0.0000          0.0000
        45           PAINT          0.0000          0.0000          0.0000          0.0000          0.0000          0.0000
        46           PAINT          0.0000          0.0000          0.0000          0.0000          0.0000          0.0000
        47           PAINT          0.0000          0.0000          0.0000          0.0000          0.0000          0.0000
        48           PAINT          0.0000          0.0000          0.0000          0.0000          0.0000          0.0000
        49           PAINT          0.0000          0.0000          0.0000          0.0000          0.0000          0.0000
        50           PAINT          0.0000          0.0000          0.0000          0.0000          0.0000          0.0000
        51           PAINT          0.0000          0.0000          0.0000          0.0000          0.0000          0.0000
       291        TRIAXIAL          0.0000          0.0000          0.0000          0.0000          0.0000          0.0000
       292        TRIAXIAL          0.0000          0.0000          0.0000          0.0000          0.0000          0.0000
       293        TRIAXIAL          0.0000          0.0000          0.0000          0.0000          0.0000          0.0000
       294        TRIAXIAL          0.0000          0.0000          0.0000          0.0000          0.0000          0.0000
       295        TRIAXIAL          0.0000          0.0000          0.0000          0.0000          0.0000          0.0000
       296        TRIAXIAL          0.0000          0.0000          0.0000          0.0000          0.0000          0.0000
       297        TRIAXIAL          0.0000          0.0000          0.0000          0.0000          0.0000          0.0000
       298        TRIAXIAL          0.0000          0.0000          0.0000          0.0000          0.0000          0.0000
       299        TRIAXIAL          0.0000          0.0000          0.0000          0.0000          0.0000          0.0000
       300        TRIAXIAL          0.0000          0.0000          0.0000          0.0000          0.0000          0.0000
       301        TRIAXIAL          0.0000          0.0000          0.0000          0.0000          0.0000          0.0000
       302        TRIAXIAL          0.0000          0.0000          0.0000          0.0000          0.0000          0.0000
       303        TRIAXIAL          0.0000          0.0000          0.0000          0.0000          0.0000          0.0000
       304        TRIAXIAL          0.0000          0.0000          0.0000          0.0000          0.0000          0.0000
       305        TRIAXIAL          0.0000          0.0000          0.0000          0.0000          0.0000          0.0000
       306        TRIAXIAL          0.0000          0.0000          0.0000          0.0000          0.0000          0.0000
       307        TRIAXIAL          0.0000          0.0000          0.0000          0.0000          0.0000          0.0000
       308        TRIAXIAL          0.0000          0.0000          0.0000          0.0000          0.0000          0.0000
       309        TRIAXIAL          0.0000          0.0000          0.0000          0.0000          0.0000          0.0000
       310        TRIAXIAL          0.0000          0.0000          0.0000          0.0000          0.0000          0.0000
       311        TRIAXIAL          0.0000          0.0000          0.0000          0.0000          0.0000          0.0000
       312        TRIAXIAL          0.0000          0.0000          0.0000          0.0000          0.0000          0.0000
       313        TRIAXIAL          0.0000          0.0000          0.0000          0.0000          0.0000          0.0000
       314        TRIAXIAL          0.0000          0.0000          0.0000          0.0000          0.0000          0.0000
       315        TRIAXIAL          0.0000          0.0000          0.0000          0.0000          0.0000          0.0000
       316        TRIAXIAL          0.0000          0.0000          0.0000          0.0000          0.0000          0.0000
       317        TRIAXIAL          0.0000          0.0000          0.0000          0.0000          0.0000          0.0000
       318        TRIAXIAL          0.0000          0.0000          0.0000          0.0000          0.0000          0.0000
       319        TRIAXIAL          0.0000          0.0000          0.0000          0.0000          0.0000          0.0000
       320        TRIAXIAL          0.0000          0.0000          0.0000          0.0000          0.0000          0.0000
       321        TRIAXIAL          0.0000          0.0000          0.0000          0.0000          0.0000          0.0000
       322        TRIAXIAL          0.0000          0.0000          0.0000          0.0000          0.0000          0.0000
       323        TRIAXIAL          0.0000          0.0000          0.0000          0.0000          0.0000          0.0000
       324        TRIAXIAL          0.0000          0.0000          0.0000          0.0000          0.0000          0.0000
       325        TRIAXIAL          0.0000          0.0000          0.0000          0.0000          0.0000          0.0000
       326        TRIAXIAL          0.0000          0.0000          0.0000          0.0000          0.0000          0.0000
       327        TRIAXIAL          0.0000          0.0000          0.0000          0.0000          0.0000          0.0000
       328        TRIAXIAL          0.0000          0.0000          0.0000          0.0000          0.0000          0.0000
       329        TRIAXIAL          0.0000          0.0000          0.0000          0.0000          0.0000          0.0000
       569           BALSA          0.0000          0.0000          0.0000          0.0000          0.0000          0.0000
       570           BALSA          0.0000          0.0000          0.0000          0.0000          0.0000          0.0000
       571           BALSA          0.0000          0.0000          0.0000          0.0000          0.0000          0.0000
       572           BALSA          0.0000          0.0000          0.0000          0.0000          0.0000          0.0000
       573           BALSA          0.0000          0.0000          0.0000          0.0000          0.0000          0.0000
       574           BALSA          0.0000          0.0000          0.0000          0.0000          0.0000          0.0000
       575           BALSA          0.0000          0.0000          0.0000          0.0000          0.0000          0.0000
       576           BALSA          0.0000          0.0000          0.0000          0.0000          0.0000          0.0000
       577           BALSA          0.0000          0.0000          0.0000          0.0000          0.0000          0.0000
       578           BALSA          0.0000          0.0000          0.0000          0.0000          0.0000          0.0000
       579           BALSA          0.0000          0.0000          0.0000          0.0000          0.0000          0.0000
       580           BALSA          0.0000          0.0000          0.0000          0.0000          0.0000          0.0000
       581           BALSA          0.0000          0.0000          0.0000          0.0000          0.0000          0.0000
       582           BALSA          0.0000          0.0000          0.0000          0.0000          0.0000          0.0000
       583           BALSA          0.0000          0.0000          0.0000          0.0000          0.0000          0.0000
       584           BALSA          0.0000          0.0000          0.0000          0.0000          0.0000          0.0000
       585           BALSA          0.0000          0.0000          0.0000          0.0000          0.0000          0.0000
       586           BALSA          0.0000          0.0000          0.0000          0.0000          0.0000          0.0000
       587           BALSA          0.0000          0.0000          0.0000          0.0000          0.0000          0.0000
       588           BALSA          0.0000          0.0000          0.0000          0.0000          0.0000          0.0000
       589           BALSA          0.0000          0.0000          0.0000          0.0000          0.0000          0.0000
       590           BALSA          0.0000          0.0000          0.0000          0.0000          0.0000          0.0000
       591           BALSA          0.0000          0.0000          0.0000          0.0000          0.0000          0.0000
       592           BALSA          0.0000          0.0000          0.0000          0.0000          0.0000          0.0000
       593           BALSA          0.0000          0.0000          0.0000          0.0000          0.0000          0.0000
       594           BALSA          0.0000          0.0000          0.0000          0.0000          0.0000          0.0000
       595           BALSA          0.0000          0.0000          0.0000          0.0000          0.0000          0.0000
       596           BALSA          0.0000          0.0000          0.0000          0.0000          0.0000          0.0000
       597           BALSA          0.0000          0.0000          0.0000          0.0000          0.0000          0.0000
       598           BALSA          0.0000          0.0000          0.0000          0.0000          0.0000          0.0000
       599           BALSA          0.0000          0.0000          0.0000          0.0000          0.0000          0.0000
       600           BALSA          0.0000          0.0000          0.0000          0.0000          0.0000          0.0000
       601           BALSA          0.0000          0.0000          0.0000          0.0000          0.0000          0.0000
       602           BALSA          0.0000          0.0000          0.0000          0.0000          0.0000          0.0000
       603           BALSA          0.0000          0.0000          0.0000          0.0000          0.0000          0.0000
       604           BALSA          0.0000          0.0000          0.0000          0.0000          0.0000          0.0000
       605           BALSA          0.0000          0.0000          0.0000          0.0000          0.0000          0.0000
       606           BALSA          0.0000          0.0000          0.0000          0.0000          0.0000          0.0000
       607           BALSA          0.0000          0.0000          0.0000          0.0000          0.0000          0.0000
       847        TRIAXIAL          0.0000          0.0000          0.0000          0.0000          0.0000          0.0000
       848        TRIAXIAL          0.0000          0.0000          0.0000          0.0000          0.0000          0.0000
       849        TRIAXIAL          0.0000          0.0000          0.0000          0.0000          0.0000          0.0000
       850        TRIAXIAL          0.0000          0.0000          0.0000          0.0000          0.0000          0.0000
       851        TRIAXIAL          0.0000          0.0000          0.0000          0.0000          0.0000          0.0000
       852        TRIAXIAL          0.0000          0.0000          0.0000          0.0000          0.0000          0.0000
       853        TRIAXIAL          0.0000          0.0000          0.0000          0.0000          0.0000          0.0000
       854        TRIAXIAL          0.0000          0.0000          0.0000          0.0000          0.0000          0.0000
       855        TRIAXIAL          0.0000          0.0000          0.0000          0.0000          0.0000          0.0000
       856        TRIAXIAL          0.0000          0.0000          0.0000          0.0000          0.0000          0.0000
       857        TRIAXIAL          0.0000          0.0000          0.0000          0.0000          0.0000          0.0000
       858        TRIAXIAL          0.0000          0.0000          0.0000          0.0000          0.0000          0.0000
       859        TRIAXIAL          0.0000          0.0000          0.0000          0.0000          0.0000          0.0000
       860        TRIAXIAL          0.0000          0.0000          0.0000          0.0000          0.0000          0.0000
       861        TRIAXIAL          0.0000          0.0000          0.0000          0.0000          0.0000          0.0000
       862        TRIAXIAL          0.0000          0.0000          0.0000          0.0000          0.0000          0.0000
       863        TRIAXIAL          0.0000          0.0000          0.0000          0.0000          0.0000          0.0000
       864        TRIAXIAL          0.0000          0.0000          0.0000          0.0000          0.0000          0.0000
       865        TRIAXIAL          0.0000          0.0000          0.0000          0.0000          0.0000          0.0000
       866        TRIAXIAL          0.0000          0.0000          0.0000          0.0000          0.0000          0.0000
       867        TRIAXIAL          0.0000          0.0000          0.0000          0.0000          0.0000          0.0000
       868        TRIAXIAL          0.0000          0.0000          0.0000          0.0000          0.0000          0.0000
       869        TRIAXIAL          0.0000          0.0000          0.0000          0.0000          0.0000          0.0000
       870        TRIAXIAL          0.0000          0.0000          0.0000          0.0000          0.0000          0.0000
       871        TRIAXIAL          0.0000          0.0000          0.0000          0.0000          0.0000          0.0000
       872        TRIAXIAL          0.0000          0.0000          0.0000          0.0000          0.0000          0.0000
       873        TRIAXIAL          0.0000          0.0000          0.0000          0.0000          0.0000          0.0000
       874        TRIAXIAL          0.0000          0.0000          0.0000          0.0000          0.0000          0.0000
       875        TRIAXIAL          0.0000          0.0000          0.0000          0.0000          0.0000          0.0000
       876        TRIAXIAL          0.0000          0.0000          0.0000          0.0000          0.0000          0.0000
       877        TRIAXIAL          0.0000          0.0000          0.0000          0.0000          0.0000          0.0000
       878        TRIAXIAL          0.0000          0.0000          0.0000          0.0000          0.0000          0.0000
       879        TRIAXIAL          0.0000          0.0000          0.0000          0.0000          0.0000          0.0000
       880        TRIAXIAL          0.0000          0.0000          0.0000          0.0000          0.0000          0.0000
       881        TRIAXIAL          0.0000          0.0000          0.0000          0.0000          0.0000          0.0000
       882        TRIAXIAL          0.0000          0.0000          0.0000          0.0000          0.0000          0.0000
       883        TRIAXIAL          0.0000          0.0000          0.0000          0.0000          0.0000          0.0000
       884        TRIAXIAL          0.0000          0.0000          0.0000          0.0000          0.0000          0.0000
       885        TRIAXIAL          0.0000          0.0000          0.0000          0.0000          0.0000          0.0000
**************************************************************************************************************************** 
ELEMENT_3: 
**************************************************************************************************************************** 
	 Maximum stress: 

	 	 	 	 	 	 	 	 	 Max value [MPa] Element ID 	 	 Material 
	    Sigma_xx           0.0000         52                PAINT 
	    Sigma_yy           0.0000         52                PAINT 
	    Sigma_xy           0.0000         52                PAINT 
	    Sigma_xz           0.0000         52                PAINT 
	    Sigma_yz           0.0000         52                PAINT 
	    Sigma_zz           0.0000         52                PAINT 

	 Minimum stress: 

	 	 	 	 	 	 	 	 	 Min value [MPa] Element ID 	 	 Material 
	   Sigma_xx           0.0000         52                PAINT 
	   Sigma_yy           0.0000         52                PAINT 
	   Sigma_xy           0.0000         52                PAINT 
	   Sigma_xz           0.0000         52                PAINT 
	   Sigma_yz           0.0000         52                PAINT 
	   Sigma_zz           0.0000         52                PAINT 

**************************************************************************************************************************** 
	 Element:   Material        sigma_xx [Mpa]  sigma_yy [Mpa]  sigma_xy [Mpa]  sigma_xz [Mpa]  sigma_yz [Mpa]  sigma_zz [Mpa]  
        52           PAINT          0.0000          0.0000          0.0000          0.0000          0.0000          0.0000
        53           PAINT          0.0000          0.0000          0.0000          0.0000          0.0000          0.0000
        54           PAINT          0.0000          0.0000          0.0000          0.0000          0.0000          0.0000
        55           PAINT          0.0000          0.0000          0.0000          0.0000          0.0000          0.0000
        56           PAINT          0.0000          0.0000          0.0000          0.0000          0.0000          0.0000
        57           PAINT          0.0000          0.0000          0.0000          0.0000          0.0000          0.0000
        58           PAINT          0.0000          0.0000          0.0000          0.0000          0.0000          0.0000
        59           PAINT          0.0000          0.0000          0.0000          0.0000          0.0000          0.0000
        60           PAINT          0.0000          0.0000          0.0000          0.0000          0.0000          0.0000
        61           PAINT          0.0000          0.0000          0.0000          0.0000          0.0000          0.0000
        62           PAINT          0.0000          0.0000          0.0000          0.0000          0.0000          0.0000
        63           PAINT          0.0000          0.0000          0.0000          0.0000          0.0000          0.0000
        64           PAINT          0.0000          0.0000          0.0000          0.0000          0.0000          0.0000
        65           PAINT          0.0000          0.0000          0.0000          0.0000          0.0000          0.0000
        66           PAINT          0.0000          0.0000          0.0000          0.0000          0.0000          0.0000
       330        TRIAXIAL          0.0000          0.0000          0.0000          0.0000          0.0000          0.0000
       331        TRIAXIAL          0.0000          0.0000          0.0000          0.0000          0.0000          0.0000
       332        TRIAXIAL          0.0000          0.0000          0.0000          0.0000          0.0000          0.0000
       333        TRIAXIAL          0.0000          0.0000          0.0000          0.0000          0.0000          0.0000
       334        TRIAXIAL          0.0000          0.0000          0.0000          0.0000          0.0000          0.0000
       335        TRIAXIAL          0.0000          0.0000          0.0000          0.0000          0.0000          0.0000
       336        TRIAXIAL          0.0000          0.0000          0.0000          0.0000          0.0000          0.0000
       337        TRIAXIAL          0.0000          0.0000          0.0000          0.0000          0.0000          0.0000
       338        TRIAXIAL          0.0000          0.0000          0.0000          0.0000          0.0000          0.0000
       339        TRIAXIAL          0.0000          0.0000          0.0000          0.0000          0.0000          0.0000
       340        TRIAXIAL          0.0000          0.0000          0.0000          0.0000          0.0000          0.0000
       341        TRIAXIAL          0.0000          0.0000          0.0000          0.0000          0.0000          0.0000
       342        TRIAXIAL          0.0000          0.0000          0.0000          0.0000          0.0000          0.0000
       343        TRIAXIAL          0.0000          0.0000          0.0000          0.0000          0.0000          0.0000
       344        TRIAXIAL          0.0000          0.0000          0.0000          0.0000          0.0000          0.0000
       608  UNIDIRECTIONAL          0.0000          0.0000          0.0000          0.0000          0.0000          0.0000
       609  UNIDIRECTIONAL          0.0000          0.0000          0.0000          0.0000          0.0000          0.0000
       610  UNIDIRECTIONAL          0.0000          0.0000          0.0000          0.0000          0.0000          0.0000
       611  UNIDIRECTIONAL          0.0000          0.0000          0.0000          0.0000          0.0000          0.0000
       612  UNIDIRECTIONAL          0.0000          0.0000          0.0000          0.0000          0.0000          0.0000
       613  UNIDIRECTIONAL          0.0000          0.0000          0.0000          0.0000          0.0000          0.0000
       614  UNIDIRECTIONAL          0.0000          0.0000          0.0000          0.0000          0.0000          0.0000
       615  UNIDIRECTIONAL          0.0000          0.0000          0.0000          0.0000          0.0000          0.0000
       616  UNIDIRECTIONAL          0.0000          0.0000          0.0000          0.0000          0.0000          0.0000
       617  UNIDIRECTIONAL          0.0000          0.0000          0.0000          0.0000          0.0000          0.0000
       618  UNIDIRECTIONAL          0.0000          0.0000          0.0000          0.0000          0.0000          0.0000
       619  UNIDIRECTIONAL          0.0000          0.0000          0.0000          0.0000          0.0000          0.0000
       620  UNIDIRECTIONAL          0.0000          0.0000          0.0000          0.0000          0.0000          0.0000
       621  UNIDIRECTIONAL          0.0000          0.0000          0.0000          0.0000          0.0000          0.0000
       622  UNIDIRECTIONAL          0.0000          0.0000          0.0000          0.0000          0.0000          0.0000
       886        TRIAXIAL          0.0000          0.0000          0.0000          0.0000          0.0000          0.0000
       887        TRIAXIAL          0.0000          0.0000          0.0000          0.0000          0.0000          0.0000
       888        TRIAXIAL          0.0000          0.0000          0.0000          0.0000          0.0000          0.0000
       889        TRIAXIAL          0.0000          0.0000          0.0000          0.0000          0.0000          0.0000
       890        TRIAXIAL          0.0000          0.0000          0.0000          0.0000          0.0000          0.0000
       891        TRIAXIAL          0.0000          0.0000          0.0000          0.0000          0.0000          0.0000
       892        TRIAXIAL          0.0000          0.0000          0.0000          0.0000          0.0000          0.0000
       893        TRIAXIAL          0.0000          0.0000          0.0000          0.0000          0.0000          0.0000
       894        TRIAXIAL          0.0000          0.0000          0.0000          0.0000          0.0000          0.0000
       895        TRIAXIAL          0.0000          0.0000          0.0000          0.0000          0.0000          0.0000
       896        TRIAXIAL          0.0000          0.0000          0.0000          0.0000          0.0000          0.0000
       897        TRIAXIAL          0.0000          0.0000          0.0000          0.0000          0.0000          0.0000
       898        TRIAXIAL          0.0000          0.0000          0.0000          0.0000          0.0000          0.0000
       899        TRIAXIAL          0.0000          0.0000          0.0000          0.0000          0.0000          0.0000
       900        TRIAXIAL          0.0000          0.0000          0.0000          0.0000          0.0000          0.0000
**************************************************************************************************************************** 
ELEMENT_4: 
**************************************************************************************************************************** 
	 Maximum stress: 

	 	 	 	 	 	 	 	 	 Max value [MPa] Element ID 	 	 Material 
	    Sigma_xx           0.0000         67                PAINT 
	    Sigma_yy           0.0000         67                PAINT 
	    Sigma_xy           0.0000         67                PAINT 
	    Sigma_xz           0.0000         67                PAINT 
	    Sigma_yz           0.0000         67                PAINT 
	    Sigma_zz           0.0000         67                PAINT 

	 Minimum stress: 

	 	 	 	 	 	 	 	 	 Min value [MPa] Element ID 	 	 Material 
	   Sigma_xx           0.0000         67                PAINT 
	   Sigma_yy           0.0000         67                PAINT 
	   Sigma_xy           0.0000         67                PAINT 
	   Sigma_xz           0.0000         67                PAINT 
	   Sigma_yz           0.0000         67                PAINT 
	   Sigma_zz           0.0000         67                PAINT 

**************************************************************************************************************************** 
	 Element:   Material        sigma_xx [Mpa]  sigma_yy [Mpa]  sigma_xy [Mpa]  sigma_xz [Mpa]  sigma_yz [Mpa]  sigma_zz [Mpa]  
        67           PAINT          0.0000          0.0000          0.0000          0.0000          0.0000          0.0000
        68           PAINT          0.0000          0.0000          0.0000          0.0000          0.0000          0.0000
        69           PAINT          0.0000          0.0000          0.0000          0.0000          0.0000          0.0000
        70           PAINT          0.0000          0.0000          0.0000          0.0000          0.0000          0.0000
        71           PAINT          0.0000          0.0000          0.0000          0.0000          0.0000          0.0000
        72           PAINT          0.0000          0.0000          0.0000          0.0000          0.0000          0.0000
        73           PAINT          0.0000          0.0000          0.0000          0.0000          0.0000          0.0000
        74           PAINT          0.0000          0.0000          0.0000          0.0000          0.0000          0.0000
        75           PAINT          0.0000          0.0000          0.0000          0.0000          0.0000          0.0000
        76           PAINT          0.0000          0.0000          0.0000          0.0000          0.0000          0.0000
        77           PAINT          0.0000          0.0000          0.0000          0.0000          0.0000          0.0000
        78           PAINT          0.0000          0.0000          0.0000          0.0000          0.0000          0.0000
        79           PAINT          0.0000          0.0000          0.0000          0.0000          0.0000          0.0000
       345        TRIAXIAL          0.0000          0.0000          0.0000          0.0000          0.0000          0.0000
       346        TRIAXIAL          0.0000          0.0000          0.0000          0.0000          0.0000          0.0000
       347        TRIAXIAL          0.0000          0.0000          0.0000          0.0000          0.0000          0.0000
       348        TRIAXIAL          0.0000          0.0000          0.0000          0.0000          0.0000          0.0000
       349        TRIAXIAL          0.0000          0.0000          0.0000          0.0000          0.0000          0.0000
       350        TRIAXIAL          0.0000          0.0000          0.0000          0.0000          0.0000          0.0000
       351        TRIAXIAL          0.0000          0.0000          0.0000          0.0000          0.0000          0.0000
       352        TRIAXIAL          0.0000          0.0000          0.0000          0.0000          0.0000          0.0000
       353        TRIAXIAL          0.0000          0.0000          0.0000          0.0000          0.0000          0.0000
       354        TRIAXIAL          0.0000          0.0000          0.0000          0.0000          0.0000          0.0000
       355        TRIAXIAL          0.0000          0.0000          0.0000          0.0000          0.0000          0.0000
       356        TRIAXIAL          0.0000          0.0000          0.0000          0.0000          0.0000          0.0000
       357        TRIAXIAL          0.0000          0.0000          0.0000          0.0000          0.0000          0.0000
       623           BALSA          0.0000          0.0000          0.0000          0.0000          0.0000          0.0000
       624           BALSA          0.0000          0.0000          0.0000          0.0000          0.0000          0.0000
       625           BALSA          0.0000          0.0000          0.0000          0.0000          0.0000          0.0000
       626           BALSA          0.0000          0.0000          0.0000          0.0000          0.0000          0.0000
       627           BALSA          0.0000          0.0000          0.0000          0.0000          0.0000          0.0000
       628           BALSA          0.0000          0.0000          0.0000          0.0000          0.0000          0.0000
       629           BALSA          0.0000          0.0000          0.0000          0.0000          0.0000          0.0000
       630           BALSA          0.0000          0.0000          0.0000          0.0000          0.0000          0.0000
       631           BALSA          0.0000          0.0000          0.0000          0.0000          0.0000          0.0000
       632           BALSA          0.0000          0.0000          0.0000          0.0000          0.0000          0.0000
       633           BALSA          0.0000          0.0000          0.0000          0.0000          0.0000          0.0000
       634           BALSA          0.0000          0.0000          0.0000          0.0000          0.0000          0.0000
       635           BALSA          0.0000          0.0000          0.0000          0.0000          0.0000          0.0000
       901        TRIAXIAL          0.0000          0.0000          0.0000          0.0000          0.0000          0.0000
       902        TRIAXIAL          0.0000          0.0000          0.0000          0.0000          0.0000          0.0000
       903        TRIAXIAL          0.0000          0.0000          0.0000          0.0000          0.0000          0.0000
       904        TRIAXIAL          0.0000          0.0000          0.0000          0.0000          0.0000          0.0000
       905        TRIAXIAL          0.0000          0.0000          0.0000          0.0000          0.0000          0.0000
       906        TRIAXIAL          0.0000          0.0000          0.0000          0.0000          0.0000          0.0000
       907        TRIAXIAL          0.0000          0.0000          0.0000          0.0000          0.0000          0.0000
       908        TRIAXIAL          0.0000          0.0000          0.0000          0.0000          0.0000          0.0000
       909        TRIAXIAL          0.0000          0.0000          0.0000          0.0000          0.0000          0.0000
       910        TRIAXIAL          0.0000          0.0000          0.0000          0.0000          0.0000          0.0000
       911        TRIAXIAL          0.0000          0.0000          0.0000          0.0000          0.0000          0.0000
       912        TRIAXIAL          0.0000          0.0000          0.0000          0.0000          0.0000          0.0000
       913        TRIAXIAL          0.0000          0.0000          0.0000          0.0000          0.0000          0.0000
**************************************************************************************************************************** 
ELEMENT_5: 
**************************************************************************************************************************** 
	 Maximum stress: 

	 	 	 	 	 	 	 	 	 Max value [MPa] Element ID 	 	 Material 
	    Sigma_xx           0.0000         80                PAINT 
	    Sigma_yy           0.0000         80                PAINT 
	    Sigma_xy           0.0000         80                PAINT 
	    Sigma_xz           0.0000         80                PAINT 
	    Sigma_yz           0.0000         80                PAINT 
	    Sigma_zz           0.0000         80                PAINT 

	 Minimum stress: 

	 	 	 	 	 	 	 	 	 Min value [MPa] Element ID 	 	 Material 
	   Sigma_xx           0.0000         80                PAINT 
	   Sigma_yy           0.0000         80                PAINT 
	   Sigma_xy           0.0000         80                PAINT 
	   Sigma_xz           0.0000         80                PAINT 
	   Sigma_yz           0.0000         80                PAINT 
	   Sigma_zz           0.0000         80                PAINT 

**************************************************************************************************************************** 
	 Element:   Material        sigma_xx [Mpa]  sigma_yy [Mpa]  sigma_xy [Mpa]  sigma_xz [Mpa]  sigma_yz [Mpa]  sigma_zz [Mpa]  
        80           PAINT          0.0000          0.0000          0.0000          0.0000          0.0000          0.0000
        81           PAINT          0.0000          0.0000          0.0000          0.0000          0.0000          0.0000
        82           PAINT          0.0000          0.0000          0.0000          0.0000          0.0000          0.0000
        83           PAINT          0.0000          0.0000          0.0000          0.0000          0.0000          0.0000
        84           PAINT          0.0000          0.0000          0.0000          0.0000          0.0000          0.0000
        85           PAINT          0.0000          0.0000          0.0000          0.0000          0.0000          0.0000
        86           PAINT          0.0000          0.0000          0.0000          0.0000          0.0000          0.0000
        87           PAINT          0.0000          0.0000          0.0000          0.0000          0.0000          0.0000
        88           PAINT          0.0000          0.0000          0.0000          0.0000          0.0000          0.0000
        89           PAINT          0.0000          0.0000          0.0000          0.0000          0.0000          0.0000
        90           PAINT          0.0000          0.0000          0.0000          0.0000          0.0000          0.0000
        91           PAINT          0.0000          0.0000          0.0000          0.0000          0.0000          0.0000
        92           PAINT          0.0000          0.0000          0.0000          0.0000          0.0000          0.0000
        93           PAINT          0.0000          0.0000          0.0000          0.0000          0.0000          0.0000
        94           PAINT          0.0000          0.0000          0.0000          0.0000          0.0000          0.0000
        95           PAINT          0.0000          0.0000          0.0000          0.0000          0.0000          0.0000
        96           PAINT          0.0000          0.0000          0.0000          0.0000          0.0000          0.0000
        97           PAINT          0.0000          0.0000          0.0000          0.0000          0.0000          0.0000
        98           PAINT          0.0000          0.0000          0.0000          0.0000          0.0000          0.0000
        99           PAINT          0.0000          0.0000          0.0000          0.0000          0.0000          0.0000
       358        TRIAXIAL          0.0000          0.0000          0.0000          0.0000          0.0000          0.0000
       359        TRIAXIAL          0.0000          0.0000          0.0000          0.0000          0.0000          0.0000
       360        TRIAXIAL          0.0000          0.0000          0.0000          0.0000          0.0000          0.0000
       361        TRIAXIAL          0.0000          0.0000          0.0000          0.0000          0.0000          0.0000
       362        TRIAXIAL          0.0000          0.0000          0.0000          0.0000          0.0000          0.0000
       363        TRIAXIAL          0.0000          0.0000          0.0000          0.0000          0.0000          0.0000
       364        TRIAXIAL          0.0000          0.0000          0.0000          0.0000          0.0000          0.0000
       365        TRIAXIAL          0.0000          0.0000          0.0000          0.0000          0.0000          0.0000
       366        TRIAXIAL          0.0000          0.0000          0.0000          0.0000          0.0000          0.0000
       367        TRIAXIAL          0.0000          0.0000          0.0000          0.0000          0.0000          0.0000
       368        TRIAXIAL          0.0000          0.0000          0.0000          0.0000          0.0000          0.0000
       369        TRIAXIAL          0.0000          0.0000          0.0000          0.0000          0.0000          0.0000
       370        TRIAXIAL          0.0000          0.0000          0.0000          0.0000          0.0000          0.0000
       371        TRIAXIAL          0.0000          0.0000          0.0000          0.0000          0.0000          0.0000
       372        TRIAXIAL          0.0000          0.0000          0.0000          0.0000          0.0000          0.0000
       373        TRIAXIAL          0.0000          0.0000          0.0000          0.0000          0.0000          0.0000
       374        TRIAXIAL          0.0000          0.0000          0.0000          0.0000          0.0000          0.0000
       375        TRIAXIAL          0.0000          0.0000          0.0000          0.0000          0.0000          0.0000
       376        TRIAXIAL          0.0000          0.0000          0.0000          0.0000          0.0000          0.0000
       377        TRIAXIAL          0.0000          0.0000          0.0000          0.0000          0.0000          0.0000
       636           BALSA          0.0000          0.0000          0.0000          0.0000          0.0000          0.0000
       637           BALSA          0.0000          0.0000          0.0000          0.0000          0.0000          0.0000
       638           BALSA          0.0000          0.0000          0.0000          0.0000          0.0000          0.0000
       639           BALSA          0.0000          0.0000          0.0000          0.0000          0.0000          0.0000
       640           BALSA          0.0000          0.0000          0.0000          0.0000          0.0000          0.0000
       641           BALSA          0.0000          0.0000          0.0000          0.0000          0.0000          0.0000
       642           BALSA          0.0000          0.0000          0.0000          0.0000          0.0000          0.0000
       643           BALSA          0.0000          0.0000          0.0000          0.0000          0.0000          0.0000
       644           BALSA          0.0000          0.0000          0.0000          0.0000          0.0000          0.0000
       645           BALSA          0.0000          0.0000          0.0000          0.0000          0.0000          0.0000
       646           BALSA          0.0000          0.0000          0.0000          0.0000          0.0000          0.0000
       647           BALSA          0.0000          0.0000          0.0000          0.0000          0.0000          0.0000
       648           BALSA          0.0000          0.0000          0.0000          0.0000          0.0000          0.0000
       649           BALSA          0.0000          0.0000          0.0000          0.0000          0.0000          0.0000
       650           BALSA          0.0000          0.0000          0.0000          0.0000          0.0000          0.0000
       651           BALSA          0.0000          0.0000          0.0000          0.0000          0.0000          0.0000
       652           BALSA          0.0000          0.0000          0.0000          0.0000          0.0000          0.0000
       653           BALSA          0.0000          0.0000          0.0000          0.0000          0.0000          0.0000
       654           BALSA          0.0000          0.0000          0.0000          0.0000          0.0000          0.0000
       655           BALSA          0.0000          0.0000          0.0000          0.0000          0.0000          0.0000
       914        TRIAXIAL          0.0000          0.0000          0.0000          0.0000          0.0000          0.0000
       915        TRIAXIAL          0.0000          0.0000          0.0000          0.0000          0.0000          0.0000
       916        TRIAXIAL          0.0000          0.0000          0.0000          0.0000          0.0000          0.0000
       917        TRIAXIAL          0.0000          0.0000          0.0000          0.0000          0.0000          0.0000
       918        TRIAXIAL          0.0000          0.0000          0.0000          0.0000          0.0000          0.0000
       919        TRIAXIAL          0.0000          0.0000          0.0000          0.0000          0.0000          0.0000
       920        TRIAXIAL          0.0000          0.0000          0.0000          0.0000          0.0000          0.0000
       921        TRIAXIAL          0.0000          0.0000          0.0000          0.0000          0.0000          0.0000
       922        TRIAXIAL          0.0000          0.0000          0.0000          0.0000          0.0000          0.0000
       923        TRIAXIAL          0.0000          0.0000          0.0000          0.0000          0.0000          0.0000
       924        TRIAXIAL          0.0000          0.0000          0.0000          0.0000          0.0000          0.0000
       925        TRIAXIAL          0.0000          0.0000          0.0000          0.0000          0.0000          0.0000
       926        TRIAXIAL          0.0000          0.0000          0.0000          0.0000          0.0000          0.0000
       927        TRIAXIAL          0.0000          0.0000          0.0000          0.0000          0.0000          0.0000
       928        TRIAXIAL          0.0000          0.0000          0.0000          0.0000          0.0000          0.0000
       929        TRIAXIAL          0.0000          0.0000          0.0000          0.0000          0.0000          0.0000
       930        TRIAXIAL          0.0000          0.0000          0.0000          0.0000          0.0000          0.0000
       931        TRIAXIAL          0.0000          0.0000          0.0000          0.0000          0.0000          0.0000
       932        TRIAXIAL          0.0000          0.0000          0.0000          0.0000          0.0000          0.0000
       933        TRIAXIAL          0.0000          0.0000          0.0000          0.0000          0.0000          0.0000
**************************************************************************************************************************** 
ELEMENT_6: 
**************************************************************************************************************************** 
	 Maximum stress: 

	 	 	 	 	 	 	 	 	 Max value [MPa] Element ID 	 	 Material 
	    Sigma_xx           0.0000        100                PAINT 
	    Sigma_yy           0.0000        100                PAINT 
	    Sigma_xy           0.0000        100                PAINT 
	    Sigma_xz           0.0000        100                PAINT 
	    Sigma_yz           0.0000        100                PAINT 
	    Sigma_zz           0.0000        100                PAINT 

	 Minimum stress: 

	 	 	 	 	 	 	 	 	 Min value [MPa] Element ID 	 	 Material 
	   Sigma_xx           0.0000        100                PAINT 
	   Sigma_yy           0.0000        100                PAINT 
	   Sigma_xy           0.0000        100                PAINT 
	   Sigma_xz           0.0000        100                PAINT 
	   Sigma_yz           0.0000        100                PAINT 
	   Sigma_zz           0.0000        100                PAINT 

**************************************************************************************************************************** 
	 Element:   Material        sigma_xx [Mpa]  sigma_yy [Mpa]  sigma_xy [Mpa]  sigma_xz [Mpa]  sigma_yz [Mpa]  sigma_zz [Mpa]  
       100           PAINT          0.0000          0.0000          0.0000          0.0000          0.0000          0.0000
       101           PAINT          0.0000          0.0000          0.0000          0.0000          0.0000          0.0000
       102           PAINT          0.0000          0.0000          0.0000          0.0000          0.0000          0.0000
       103           PAINT          0.0000          0.0000          0.0000          0.0000          0.0000          0.0000
       104           PAINT          0.0000          0.0000          0.0000          0.0000          0.0000          0.0000
       105           PAINT          0.0000          0.0000          0.0000          0.0000          0.0000          0.0000
       106           PAINT          0.0000          0.0000          0.0000          0.0000          0.0000          0.0000
       107           PAINT          0.0000          0.0000          0.0000          0.0000          0.0000          0.0000
       108           PAINT          0.0000          0.0000          0.0000          0.0000          0.0000          0.0000
       109           PAINT          0.0000          0.0000          0.0000          0.0000          0.0000          0.0000
       110           PAINT          0.0000          0.0000          0.0000          0.0000          0.0000          0.0000
       111           PAINT          0.0000          0.0000          0.0000          0.0000          0.0000          0.0000
       112           PAINT          0.0000          0.0000          0.0000          0.0000          0.0000          0.0000
       113           PAINT          0.0000          0.0000          0.0000          0.0000          0.0000          0.0000
       114           PAINT          0.0000          0.0000          0.0000          0.0000          0.0000          0.0000
       115           PAINT          0.0000          0.0000          0.0000          0.0000          0.0000          0.0000
       116           PAINT          0.0000          0.0000          0.0000          0.0000          0.0000          0.0000
       117           PAINT          0.0000          0.0000          0.0000          0.0000          0.0000          0.0000
       118           PAINT          0.0000          0.0000          0.0000          0.0000          0.0000          0.0000
       119           PAINT          0.0000          0.0000          0.0000          0.0000          0.0000          0.0000
       120           PAINT          0.0000          0.0000          0.0000          0.0000          0.0000          0.0000
       378        TRIAXIAL          0.0000          0.0000          0.0000          0.0000          0.0000          0.0000
       379        TRIAXIAL          0.0000          0.0000          0.0000          0.0000          0.0000          0.0000
       380        TRIAXIAL          0.0000          0.0000          0.0000          0.0000          0.0000          0.0000
       381        TRIAXIAL          0.0000          0.0000          0.0000          0.0000          0.0000          0.0000
       382        TRIAXIAL          0.0000          0.0000          0.0000          0.0000          0.0000          0.0000
       383        TRIAXIAL          0.0000          0.0000          0.0000          0.0000          0.0000          0.0000
       384        TRIAXIAL          0.0000          0.0000          0.0000          0.0000          0.0000          0.0000
       385        TRIAXIAL          0.0000          0.0000          0.0000          0.0000          0.0000          0.0000
       386        TRIAXIAL          0.0000          0.0000          0.0000          0.0000          0.0000          0.0000
       387        TRIAXIAL          0.0000          0.0000          0.0000          0.0000          0.0000          0.0000
       388        TRIAXIAL          0.0000          0.0000          0.0000          0.0000          0.0000          0.0000
       389        TRIAXIAL          0.0000          0.0000          0.0000          0.0000          0.0000          0.0000
       390        TRIAXIAL          0.0000          0.0000          0.0000          0.0000          0.0000          0.0000
       391        TRIAXIAL          0.0000          0.0000          0.0000          0.0000          0.0000          0.0000
       392        TRIAXIAL          0.0000          0.0000          0.0000          0.0000          0.0000          0.0000
       393        TRIAXIAL          0.0000          0.0000          0.0000          0.0000          0.0000          0.0000
       394        TRIAXIAL          0.0000          0.0000          0.0000          0.0000          0.0000          0.0000
       395        TRIAXIAL          0.0000          0.0000          0.0000          0.0000          0.0000          0.0000
       396        TRIAXIAL          0.0000          0.0000          0.0000          0.0000          0.0000          0.0000
       397        TRIAXIAL          0.0000          0.0000          0.0000          0.0000          0.0000          0.0000
       398        TRIAXIAL          0.0000          0.0000          0.0000          0.0000          0.0000          0.0000
       656           BALSA          0.0000          0.0000          0.0000          0.0000          0.0000          0.0000
       657           BALSA          0.0000          0.0000          0.0000          0.0000          0.0000          0.0000
       658           BALSA          0.0000          0.0000          0.0000          0.0000          0.0000          0.0000
       659           BALSA          0.0000          0.0000          0.0000          0.0000          0.0000          0.0000
       660           BALSA          0.0000          0.0000          0.0000          0.0000          0.0000          0.0000
       661           BALSA          0.0000          0.0000          0.0000          0.0000          0.0000          0.0000
       662           BALSA          0.0000          0.0000          0.0000          0.0000          0.0000          0.0000
       663           BALSA          0.0000          0.0000          0.0000          0.0000          0.0000          0.0000
       664           BALSA          0.0000          0.0000          0.0000          0.0000          0.0000          0.0000
       665           BALSA          0.0000          0.0000          0.0000          0.0000          0.0000          0.0000
       666           BALSA          0.0000          0.0000          0.0000          0.0000          0.0000          0.0000
       667           BALSA          0.0000          0.0000          0.0000          0.0000          0.0000          0.0000
       668           BALSA          0.0000          0.0000          0.0000          0.0000          0.0000          0.0000
       669           BALSA          0.0000          0.0000          0.0000          0.0000          0.0000          0.0000
       670           BALSA          0.0000          0.0000          0.0000          0.0000          0.0000          0.0000
       671           BALSA          0.0000          0.0000          0.0000          0.0000          0.0000          0.0000
       672           BALSA          0.0000          0.0000          0.0000          0.0000          0.0000          0.0000
       673           BALSA          0.0000          0.0000          0.0000          0.0000          0.0000          0.0000
       674           BALSA          0.0000          0.0000          0.0000          0.0000          0.0000          0.0000
       675           BALSA          0.0000          0.0000          0.0000          0.0000          0.0000          0.0000
       676           BALSA          0.0000          0.0000          0.0000          0.0000          0.0000          0.0000
       934        TRIAXIAL          0.0000          0.0000          0.0000          0.0000          0.0000          0.0000
       935        TRIAXIAL          0.0000          0.0000          0.0000          0.0000          0.0000          0.0000
       936        TRIAXIAL          0.0000          0.0000          0.0000          0.0000          0.0000          0.0000
       937        TRIAXIAL          0.0000          0.0000          0.0000          0.0000          0.0000          0.0000
       938        TRIAXIAL          0.0000          0.0000          0.0000          0.0000          0.0000          0.0000
       939        TRIAXIAL          0.0000          0.0000          0.0000          0.0000          0.0000          0.0000
       940        TRIAXIAL          0.0000          0.0000          0.0000          0.0000          0.0000          0.0000
       941        TRIAXIAL          0.0000          0.0000          0.0000          0.0000          0.0000          0.0000
       942        TRIAXIAL          0.0000          0.0000          0.0000          0.0000          0.0000          0.0000
       943        TRIAXIAL          0.0000          0.0000          0.0000          0.0000          0.0000          0.0000
       944        TRIAXIAL          0.0000          0.0000          0.0000          0.0000          0.0000          0.0000
       945        TRIAXIAL          0.0000          0.0000          0.0000          0.0000          0.0000          0.0000
       946        TRIAXIAL          0.0000          0.0000          0.0000          0.0000          0.0000          0.0000
       947        TRIAXIAL          0.0000          0.0000          0.0000          0.0000          0.0000          0.0000
       948        TRIAXIAL          0.0000          0.0000          0.0000          0.0000          0.0000          0.0000
       949        TRIAXIAL          0.0000          0.0000          0.0000          0.0000          0.0000          0.0000
       950        TRIAXIAL          0.0000          0.0000          0.0000          0.0000          0.0000          0.0000
       951        TRIAXIAL          0.0000          0.0000          0.0000          0.0000          0.0000          0.0000
       952        TRIAXIAL          0.0000          0.0000          0.0000          0.0000          0.0000          0.0000
       953        TRIAXIAL          0.0000          0.0000          0.0000          0.0000          0.0000          0.0000
       954        TRIAXIAL          0.0000          0.0000          0.0000          0.0000          0.0000          0.0000
**************************************************************************************************************************** 
ELEMENT_7: 
**************************************************************************************************************************** 
	 Maximum stress: 

	 	 	 	 	 	 	 	 	 Max value [MPa] Element ID 	 	 Material 
	    Sigma_xx           0.0000        121                PAINT 
	    Sigma_yy           0.0000        121                PAINT 
	    Sigma_xy           0.0000        121                PAINT 
	    Sigma_xz           0.0000        121                PAINT 
	    Sigma_yz           0.0000        121                PAINT 
	    Sigma_zz           0.0000        121                PAINT 

	 Minimum stress: 

	 	 	 	 	 	 	 	 	 Min value [MPa] Element ID 	 	 Material 
	   Sigma_xx           0.0000        121                PAINT 
	   Sigma_yy           0.0000        121                PAINT 
	   Sigma_xy           0.0000        121                PAINT 
	   Sigma_xz           0.0000        121                PAINT 
	   Sigma_yz           0.0000        121                PAINT 
	   Sigma_zz           0.0000        121                PAINT 

**************************************************************************************************************************** 
	 Element:   Material        sigma_xx [Mpa]  sigma_yy [Mpa]  sigma_xy [Mpa]  sigma_xz [Mpa]  sigma_yz [Mpa]  sigma_zz [Mpa]  
       121           PAINT          0.0000          0.0000          0.0000          0.0000          0.0000          0.0000
       122           PAINT          0.0000          0.0000          0.0000          0.0000          0.0000          0.0000
       123           PAINT          0.0000          0.0000          0.0000          0.0000          0.0000          0.0000
       124           PAINT          0.0000          0.0000          0.0000          0.0000          0.0000          0.0000
       125           PAINT          0.0000          0.0000          0.0000          0.0000          0.0000          0.0000
       126           PAINT          0.0000          0.0000          0.0000          0.0000          0.0000          0.0000
       127           PAINT          0.0000          0.0000          0.0000          0.0000          0.0000          0.0000
       128           PAINT          0.0000          0.0000          0.0000          0.0000          0.0000          0.0000
       129           PAINT          0.0000          0.0000          0.0000          0.0000          0.0000          0.0000
       130           PAINT          0.0000          0.0000          0.0000          0.0000          0.0000          0.0000
       131           PAINT          0.0000          0.0000          0.0000          0.0000          0.0000          0.0000
       132           PAINT          0.0000          0.0000          0.0000          0.0000          0.0000          0.0000
       133           PAINT          0.0000          0.0000          0.0000          0.0000          0.0000          0.0000
       399        TRIAXIAL          0.0000          0.0000          0.0000          0.0000          0.0000          0.0000
       400        TRIAXIAL          0.0000          0.0000          0.0000          0.0000          0.0000          0.0000
       401        TRIAXIAL          0.0000          0.0000          0.0000          0.0000          0.0000          0.0000
       402        TRIAXIAL          0.0000          0.0000          0.0000          0.0000          0.0000          0.0000
       403        TRIAXIAL          0.0000          0.0000          0.0000          0.0000          0.0000          0.0000
       404        TRIAXIAL          0.0000          0.0000          0.0000          0.0000          0.0000          0.0000
       405        TRIAXIAL          0.0000          0.0000          0.0000          0.0000          0.0000          0.0000
       406        TRIAXIAL          0.0000          0.0000          0.0000          0.0000          0.0000          0.0000
       407        TRIAXIAL          0.0000          0.0000          0.0000          0.0000          0.0000          0.0000
       408        TRIAXIAL          0.0000          0.0000          0.0000          0.0000          0.0000          0.0000
       409        TRIAXIAL          0.0000          0.0000          0.0000          0.0000          0.0000          0.0000
       410        TRIAXIAL          0.0000          0.0000          0.0000          0.0000          0.0000          0.0000
       411        TRIAXIAL          0.0000          0.0000          0.0000          0.0000          0.0000          0.0000
       677           BALSA          0.0000          0.0000          0.0000          0.0000          0.0000          0.0000
       678           BALSA          0.0000          0.0000          0.0000          0.0000          0.0000          0.0000
       679           BALSA          0.0000          0.0000          0.0000          0.0000          0.0000          0.0000
       680           BALSA          0.0000          0.0000          0.0000          0.0000          0.0000          0.0000
       681           BALSA          0.0000          0.0000          0.0000          0.0000          0.0000          0.0000
       682           BALSA          0.0000          0.0000          0.0000          0.0000          0.0000          0.0000
       683           BALSA          0.0000          0.0000          0.0000          0.0000          0.0000          0.0000
       684           BALSA          0.0000          0.0000          0.0000          0.0000          0.0000          0.0000
       685           BALSA          0.0000          0.0000          0.0000          0.0000          0.0000          0.0000
       686           BALSA          0.0000          0.0000          0.0000          0.0000          0.0000          0.0000
       687           BALSA          0.0000          0.0000          0.0000          0.0000          0.0000          0.0000
       688           BALSA          0.0000          0.0000          0.0000          0.0000          0.0000          0.0000
       689           BALSA          0.0000          0.0000          0.0000          0.0000          0.0000          0.0000
       955        TRIAXIAL          0.0000          0.0000          0.0000          0.0000          0.0000          0.0000
       956        TRIAXIAL          0.0000          0.0000          0.0000          0.0000          0.0000          0.0000
       957        TRIAXIAL          0.0000          0.0000          0.0000          0.0000          0.0000          0.0000
       958        TRIAXIAL          0.0000          0.0000          0.0000          0.0000          0.0000          0.0000
       959        TRIAXIAL          0.0000          0.0000          0.0000          0.0000          0.0000          0.0000
       960        TRIAXIAL          0.0000          0.0000          0.0000          0.0000          0.0000          0.0000
       961        TRIAXIAL          0.0000          0.0000          0.0000          0.0000          0.0000          0.0000
       962        TRIAXIAL          0.0000          0.0000          0.0000          0.0000          0.0000          0.0000
       963        TRIAXIAL          0.0000          0.0000          0.0000          0.0000          0.0000          0.0000
       964        TRIAXIAL          0.0000          0.0000          0.0000          0.0000          0.0000          0.0000
       965        TRIAXIAL          0.0000          0.0000          0.0000          0.0000          0.0000          0.0000
       966        TRIAXIAL          0.0000          0.0000          0.0000          0.0000          0.0000          0.0000
       967        TRIAXIAL          0.0000          0.0000          0.0000          0.0000          0.0000          0.0000
**************************************************************************************************************************** 
ELEMENT_8: 
**************************************************************************************************************************** 
	 Maximum stress: 

	 	 	 	 	 	 	 	 	 Max value [MPa] Element ID 	 	 Material 
	    Sigma_xx           0.0000        134                PAINT 
	    Sigma_yy           0.0000        134                PAINT 
	    Sigma_xy           0.0000        134                PAINT 
	    Sigma_xz           0.0000        134                PAINT 
	    Sigma_yz           0.0000        134                PAINT 
	    Sigma_zz           0.0000        134                PAINT 

	 Minimum stress: 

	 	 	 	 	 	 	 	 	 Min value [MPa] Element ID 	 	 Material 
	   Sigma_xx           0.0000        134                PAINT 
	   Sigma_yy           0.0000        134                PAINT 
	   Sigma_xy           0.0000        134                PAINT 
	   Sigma_xz           0.0000        134                PAINT 
	   Sigma_yz           0.0000        134                PAINT 
	   Sigma_zz           0.0000        134                PAINT 

**************************************************************************************************************************** 
	 Element:   Material        sigma_xx [Mpa]  sigma_yy [Mpa]  sigma_xy [Mpa]  sigma_xz [Mpa]  sigma_yz [Mpa]  sigma_zz [Mpa]  
       134           PAINT          0.0000          0.0000          0.0000          0.0000          0.0000          0.0000
       135           PAINT          0.0000          0.0000          0.0000          0.0000          0.0000          0.0000
       136           PAINT          0.0000          0.0000          0.0000          0.0000          0.0000          0.0000
       137           PAINT          0.0000          0.0000          0.0000          0.0000          0.0000          0.0000
       138           PAINT          0.0000          0.0000          0.0000          0.0000          0.0000          0.0000
       139           PAINT          0.0000          0.0000          0.0000          0.0000          0.0000          0.0000
       140           PAINT          0.0000          0.0000          0.0000          0.0000          0.0000          0.0000
       141           PAINT          0.0000          0.0000          0.0000          0.0000          0.0000          0.0000
       142           PAINT          0.0000          0.0000          0.0000          0.0000          0.0000          0.0000
       143           PAINT          0.0000          0.0000          0.0000          0.0000          0.0000          0.0000
       144           PAINT          0.0000          0.0000          0.0000          0.0000          0.0000          0.0000
       145           PAINT          0.0000          0.0000          0.0000          0.0000          0.0000          0.0000
       146           PAINT          0.0000          0.0000          0.0000          0.0000          0.0000          0.0000
       147           PAINT          0.0000          0.0000          0.0000          0.0000          0.0000          0.0000
       148           PAINT          0.0000          0.0000          0.0000          0.0000          0.0000          0.0000
       412        TRIAXIAL          0.0000          0.0000          0.0000          0.0000          0.0000          0.0000
       413        TRIAXIAL          0.0000          0.0000          0.0000          0.0000          0.0000          0.0000
       414        TRIAXIAL          0.0000          0.0000          0.0000          0.0000          0.0000          0.0000
       415        TRIAXIAL          0.0000          0.0000          0.0000          0.0000          0.0000          0.0000
       416        TRIAXIAL          0.0000          0.0000          0.0000          0.0000          0.0000          0.0000
       417        TRIAXIAL          0.0000          0.0000          0.0000          0.0000          0.0000          0.0000
       418        TRIAXIAL          0.0000          0.0000          0.0000          0.0000          0.0000          0.0000
       419        TRIAXIAL          0.0000          0.0000          0.0000          0.0000          0.0000          0.0000
       420        TRIAXIAL          0.0000          0.0000          0.0000          0.0000          0.0000          0.0000
       421        TRIAXIAL          0.0000          0.0000          0.0000          0.0000          0.0000          0.0000
       422        TRIAXIAL          0.0000          0.0000          0.0000          0.0000          0.0000          0.0000
       423        TRIAXIAL          0.0000          0.0000          0.0000          0.0000          0.0000          0.0000
       424        TRIAXIAL          0.0000          0.0000          0.0000          0.0000          0.0000          0.0000
       425        TRIAXIAL          0.0000          0.0000          0.0000          0.0000          0.0000          0.0000
       426        TRIAXIAL          0.0000          0.0000          0.0000          0.0000          0.0000          0.0000
       690  UNIDIRECTIONAL          0.0000          0.0000          0.0000          0.0000          0.0000          0.0000
       691  UNIDIRECTIONAL          0.0000          0.0000          0.0000          0.0000          0.0000          0.0000
       692  UNIDIRECTIONAL          0.0000          0.0000          0.0000          0.0000          0.0000          0.0000
       693  UNIDIRECTIONAL          0.0000          0.0000          0.0000          0.0000          0.0000          0.0000
       694  UNIDIRECTIONAL          0.0000          0.0000          0.0000          0.0000          0.0000          0.0000
       695  UNIDIRECTIONAL          0.0000          0.0000          0.0000          0.0000          0.0000          0.0000
       696  UNIDIRECTIONAL          0.0000          0.0000          0.0000          0.0000          0.0000          0.0000
       697  UNIDIRECTIONAL          0.0000          0.0000          0.0000          0.0000          0.0000          0.0000
       698  UNIDIRECTIONAL          0.0000          0.0000          0.0000          0.0000          0.0000          0.0000
       699  UNIDIRECTIONAL          0.0000          0.0000          0.0000          0.0000          0.0000          0.0000
       700  UNIDIRECTIONAL          0.0000          0.0000          0.0000          0.0000          0.0000          0.0000
       701  UNIDIRECTIONAL          0.0000          0.0000          0.0000          0.0000          0.0000          0.0000
       702  UNIDIRECTIONAL          0.0000          0.0000          0.0000          0.0000          0.0000          0.0000
       703  UNIDIRECTIONAL          0.0000          0.0000          0.0000          0.0000          0.0000          0.0000
       704  UNIDIRECTIONAL          0.0000          0.0000          0.0000          0.0000          0.0000          0.0000
       968        TRIAXIAL          0.0000          0.0000          0.0000          0.0000          0.0000          0.0000
       969        TRIAXIAL          0.0000          0.0000          0.0000          0.0000          0.0000          0.0000
       970        TRIAXIAL          0.0000          0.0000          0.0000          0.0000          0.0000          0.0000
       971        TRIAXIAL          0.0000          0.0000          0.0000          0.0000          0.0000          0.0000
       972        TRIAXIAL          0.0000          0.0000          0.0000          0.0000          0.0000          0.0000
       973        TRIAXIAL          0.0000          0.0000          0.0000          0.0000          0.0000          0.0000
       974        TRIAXIAL          0.0000          0.0000          0.0000          0.0000          0.0000          0.0000
       975        TRIAXIAL          0.0000          0.0000          0.0000          0.0000          0.0000          0.0000
       976        TRIAXIAL          0.0000          0.0000          0.0000          0.0000          0.0000          0.0000
       977        TRIAXIAL          0.0000          0.0000          0.0000          0.0000          0.0000          0.0000
       978        TRIAXIAL          0.0000          0.0000          0.0000          0.0000          0.0000          0.0000
       979        TRIAXIAL          0.0000          0.0000          0.0000          0.0000          0.0000          0.0000
       980        TRIAXIAL          0.0000          0.0000          0.0000          0.0000          0.0000          0.0000
       981        TRIAXIAL          0.0000          0.0000          0.0000          0.0000          0.0000          0.0000
       982        TRIAXIAL          0.0000          0.0000          0.0000          0.0000          0.0000          0.0000
**************************************************************************************************************************** 
ELEMENT_9: 
**************************************************************************************************************************** 
	 Maximum stress: 

	 	 	 	 	 	 	 	 	 Max value [MPa] Element ID 	 	 Material 
	    Sigma_xx           0.0000        149                PAINT 
	    Sigma_yy           0.0000        149                PAINT 
	    Sigma_xy           0.0000        149                PAINT 
	    Sigma_xz           0.0000        149                PAINT 
	    Sigma_yz           0.0000        149                PAINT 
	    Sigma_zz           0.0000        149                PAINT 

	 Minimum stress: 

	 	 	 	 	 	 	 	 	 Min value [MPa] Element ID 	 	 Material 
	   Sigma_xx           0.0000        149                PAINT 
	   Sigma_yy           0.0000        149                PAINT 
	   Sigma_xy           0.0000        149                PAINT 
	   Sigma_xz           0.0000        149                PAINT 
	   Sigma_yz           0.0000        149                PAINT 
	   Sigma_zz           0.0000        149                PAINT 

**************************************************************************************************************************** 
	 Element:   Material        sigma_xx [Mpa]  sigma_yy [Mpa]  sigma_xy [Mpa]  sigma_xz [Mpa]  sigma_yz [Mpa]  sigma_zz [Mpa]  
       149           PAINT          0.0000          0.0000          0.0000          0.0000          0.0000          0.0000
       150           PAINT          0.0000          0.0000          0.0000          0.0000          0.0000          0.0000
       151           PAINT          0.0000          0.0000          0.0000          0.0000          0.0000          0.0000
       152           PAINT          0.0000          0.0000          0.0000          0.0000          0.0000          0.0000
       153           PAINT          0.0000          0.0000          0.0000          0.0000          0.0000          0.0000
       154           PAINT          0.0000          0.0000          0.0000          0.0000          0.0000          0.0000
       155           PAINT          0.0000          0.0000          0.0000          0.0000          0.0000          0.0000
       156           PAINT          0.0000          0.0000          0.0000          0.0000          0.0000          0.0000
       157           PAINT          0.0000          0.0000          0.0000          0.0000          0.0000          0.0000
       158           PAINT          0.0000          0.0000          0.0000          0.0000          0.0000          0.0000
       159           PAINT          0.0000          0.0000          0.0000          0.0000          0.0000          0.0000
       160           PAINT          0.0000          0.0000          0.0000          0.0000          0.0000          0.0000
       161           PAINT          0.0000          0.0000          0.0000          0.0000          0.0000          0.0000
       162           PAINT          0.0000          0.0000          0.0000          0.0000          0.0000          0.0000
       163           PAINT          0.0000          0.0000          0.0000          0.0000          0.0000          0.0000
       164           PAINT          0.0000          0.0000          0.0000          0.0000          0.0000          0.0000
       165           PAINT          0.0000          0.0000          0.0000          0.0000          0.0000          0.0000
       166           PAINT          0.0000          0.0000          0.0000          0.0000          0.0000          0.0000
       167           PAINT          0.0000          0.0000          0.0000          0.0000          0.0000          0.0000
       168           PAINT          0.0000          0.0000          0.0000          0.0000          0.0000          0.0000
       169           PAINT          0.0000          0.0000          0.0000          0.0000          0.0000          0.0000
       170           PAINT          0.0000          0.0000          0.0000          0.0000          0.0000          0.0000
       171           PAINT          0.0000          0.0000          0.0000          0.0000          0.0000          0.0000
       172           PAINT          0.0000          0.0000          0.0000          0.0000          0.0000          0.0000
       173           PAINT          0.0000          0.0000          0.0000          0.0000          0.0000          0.0000
       174           PAINT          0.0000          0.0000          0.0000          0.0000          0.0000          0.0000
       175           PAINT          0.0000          0.0000          0.0000          0.0000          0.0000          0.0000
       176           PAINT          0.0000          0.0000          0.0000          0.0000          0.0000          0.0000
       177           PAINT          0.0000          0.0000          0.0000          0.0000          0.0000          0.0000
       178           PAINT          0.0000          0.0000          0.0000          0.0000          0.0000          0.0000
       179           PAINT          0.0000          0.0000          0.0000          0.0000          0.0000          0.0000
       180           PAINT          0.0000          0.0000          0.0000          0.0000          0.0000          0.0000
       181           PAINT          0.0000          0.0000          0.0000          0.0000          0.0000          0.0000
       182           PAINT          0.0000          0.0000          0.0000          0.0000          0.0000          0.0000
       183           PAINT          0.0000          0.0000          0.0000          0.0000          0.0000          0.0000
       184           PAINT          0.0000          0.0000          0.0000          0.0000          0.0000          0.0000
       185           PAINT          0.0000          0.0000          0.0000          0.0000          0.0000          0.0000
       427        TRIAXIAL          0.0000          0.0000          0.0000          0.0000          0.0000          0.0000
       428        TRIAXIAL          0.0000          0.0000          0.0000          0.0000          0.0000          0.0000
       429        TRIAXIAL          0.0000          0.0000          0.0000          0.0000          0.0000          0.0000
       430        TRIAXIAL          0.0000          0.0000          0.0000          0.0000          0.0000          0.0000
       431        TRIAXIAL          0.0000          0.0000          0.0000          0.0000          0.0000          0.0000
       432        TRIAXIAL          0.0000          0.0000          0.0000          0.0000          0.0000          0.0000
       433        TRIAXIAL          0.0000          0.0000          0.0000          0.0000          0.0000          0.0000
       434        TRIAXIAL          0.0000          0.0000          0.0000          0.0000          0.0000          0.0000
       435        TRIAXIAL          0.0000          0.0000          0.0000          0.0000          0.0000          0.0000
       436        TRIAXIAL          0.0000          0.0000          0.0000          0.0000          0.0000          0.0000
       437        TRIAXIAL          0.0000          0.0000          0.0000          0.0000          0.0000          0.0000
       438        TRIAXIAL          0.0000          0.0000          0.0000          0.0000          0.0000          0.0000
       439        TRIAXIAL          0.0000          0.0000          0.0000          0.0000          0.0000          0.0000
       440        TRIAXIAL          0.0000          0.0000          0.0000          0.0000          0.0000          0.0000
       441        TRIAXIAL          0.0000          0.0000          0.0000          0.0000          0.0000          0.0000
       442        TRIAXIAL          0.0000          0.0000          0.0000          0.0000          0.0000          0.0000
       443        TRIAXIAL          0.0000          0.0000          0.0000          0.0000          0.0000          0.0000
       444        TRIAXIAL          0.0000          0.0000          0.0000          0.0000          0.0000          0.0000
       445        TRIAXIAL          0.0000          0.0000          0.0000          0.0000          0.0000          0.0000
       446        TRIAXIAL          0.0000          0.0000          0.0000          0.0000          0.0000          0.0000
       447        TRIAXIAL          0.0000          0.0000          0.0000          0.0000          0.0000          0.0000
       448        TRIAXIAL          0.0000          0.0000          0.0000          0.0000          0.0000          0.0000
       449        TRIAXIAL          0.0000          0.0000          0.0000          0.0000          0.0000          0.0000
       450        TRIAXIAL          0.0000          0.0000          0.0000          0.0000          0.0000          0.0000
       451        TRIAXIAL          0.0000          0.0000          0.0000          0.0000          0.0000          0.0000
       452        TRIAXIAL          0.0000          0.0000          0.0000          0.0000          0.0000          0.0000
       453        TRIAXIAL          0.0000          0.0000          0.0000          0.0000          0.0000          0.0000
       454        TRIAXIAL          0.0000          0.0000          0.0000          0.0000          0.0000          0.0000
       455        TRIAXIAL          0.0000          0.0000          0.0000          0.0000          0.0000          0.0000
       456        TRIAXIAL          0.0000          0.0000          0.0000          0.0000          0.0000          0.0000
       457        TRIAXIAL          0.0000          0.0000          0.0000          0.0000          0.0000          0.0000
       458        TRIAXIAL          0.0000          0.0000          0.0000          0.0000          0.0000          0.0000
       459        TRIAXIAL          0.0000          0.0000          0.0000          0.0000          0.0000          0.0000
       460        TRIAXIAL          0.0000          0.0000          0.0000          0.0000          0.0000          0.0000
       461        TRIAXIAL          0.0000          0.0000          0.0000          0.0000          0.0000          0.0000
       462        TRIAXIAL          0.0000          0.0000          0.0000          0.0000          0.0000          0.0000
       463        TRIAXIAL          0.0000          0.0000          0.0000          0.0000          0.0000          0.0000
       705           BALSA          0.0000          0.0000          0.0000          0.0000          0.0000          0.0000
       706           BALSA          0.0000          0.0000          0.0000          0.0000          0.0000          0.0000
       707           BALSA          0.0000          0.0000          0.0000          0.0000          0.0000          0.0000
       708           BALSA          0.0000          0.0000          0.0000          0.0000          0.0000          0.0000
       709           BALSA          0.0000          0.0000          0.0000          0.0000          0.0000          0.0000
       710           BALSA          0.0000          0.0000          0.0000          0.0000          0.0000          0.0000
       711           BALSA          0.0000          0.0000          0.0000          0.0000          0.0000          0.0000
       712           BALSA          0.0000          0.0000          0.0000          0.0000          0.0000          0.0000
       713           BALSA          0.0000          0.0000          0.0000          0.0000          0.0000          0.0000
       714           BALSA          0.0000          0.0000          0.0000          0.0000          0.0000          0.0000
       715           BALSA          0.0000          0.0000          0.0000          0.0000          0.0000          0.0000
       716           BALSA          0.0000          0.0000          0.0000          0.0000          0.0000          0.0000
       717           BALSA          0.0000          0.0000          0.0000          0.0000          0.0000          0.0000
       718           BALSA          0.0000          0.0000          0.0000          0.0000          0.0000          0.0000
       719           BALSA          0.0000          0.0000          0.0000          0.0000          0.0000          0.0000
       720           BALSA          0.0000          0.0000          0.0000          0.0000          0.0000          0.0000
       721           BALSA          0.0000          0.0000          0.0000          0.0000          0.0000          0.0000
       722           BALSA          0.0000          0.0000          0.0000          0.0000          0.0000          0.0000
       723           BALSA          0.0000          0.0000          0.0000          0.0000          0.0000          0.0000
       724           BALSA          0.0000          0.0000          0.0000          0.0000          0.0000          0.0000
       725           BALSA          0.0000          0.0000          0.0000          0.0000          0.0000          0.0000
       726           BALSA          0.0000          0.0000          0.0000          0.0000          0.0000          0.0000
       727           BALSA          0.0000          0.0000          0.0000          0.0000          0.0000          0.0000
       728           BALSA          0.0000          0.0000          0.0000          0.0000          0.0000          0.0000
       729           BALSA          0.0000          0.0000          0.0000          0.0000          0.0000          0.0000
       730           BALSA          0.0000          0.0000          0.0000          0.0000          0.0000          0.0000
       731           BALSA          0.0000          0.0000          0.0000          0.0000          0.0000          0.0000
       732           BALSA          0.0000          0.0000          0.0000          0.0000          0.0000          0.0000
       733           BALSA          0.0000          0.0000          0.0000          0.0000          0.0000          0.0000
       734           BALSA          0.0000          0.0000          0.0000          0.0000          0.0000          0.0000
       735           BALSA          0.0000          0.0000          0.0000          0.0000          0.0000          0.0000
       736           BALSA          0.0000          0.0000          0.0000          0.0000          0.0000          0.0000
       737           BALSA          0.0000          0.0000          0.0000          0.0000          0.0000          0.0000
       738           BALSA          0.0000          0.0000          0.0000          0.0000          0.0000          0.0000
       739           BALSA          0.0000          0.0000          0.0000          0.0000          0.0000          0.0000
       740           BALSA          0.0000          0.0000          0.0000          0.0000          0.0000          0.0000
       741           BALSA          0.0000          0.0000          0.0000          0.0000          0.0000          0.0000
       983        TRIAXIAL          0.0000          0.0000          0.0000          0.0000          0.0000          0.0000
       984        TRIAXIAL          0.0000          0.0000          0.0000          0.0000          0.0000          0.0000
       985        TRIAXIAL          0.0000          0.0000          0.0000          0.0000          0.0000          0.0000
       986        TRIAXIAL          0.0000          0.0000          0.0000          0.0000          0.0000          0.0000
       987        TRIAXIAL          0.0000          0.0000          0.0000          0.0000          0.0000          0.0000
       988        TRIAXIAL          0.0000          0.0000          0.0000          0.0000          0.0000          0.0000
       989        TRIAXIAL          0.0000          0.0000          0.0000          0.0000          0.0000          0.0000
       990        TRIAXIAL          0.0000          0.0000          0.0000          0.0000          0.0000          0.0000
       991        TRIAXIAL          0.0000          0.0000          0.0000          0.0000          0.0000          0.0000
       992        TRIAXIAL          0.0000          0.0000          0.0000          0.0000          0.0000          0.0000
       993        TRIAXIAL          0.0000          0.0000          0.0000          0.0000          0.0000          0.0000
       994        TRIAXIAL          0.0000          0.0000          0.0000          0.0000          0.0000          0.0000
       995        TRIAXIAL          0.0000          0.0000          0.0000          0.0000          0.0000          0.0000
       996        TRIAXIAL          0.0000          0.0000          0.0000          0.0000          0.0000          0.0000
       997        TRIAXIAL          0.0000          0.0000          0.0000          0.0000          0.0000          0.0000
       998        TRIAXIAL          0.0000          0.0000          0.0000          0.0000          0.0000          0.0000
       999        TRIAXIAL          0.0000          0.0000          0.0000          0.0000          0.0000          0.0000
      1000        TRIAXIAL          0.0000          0.0000          0.0000          0.0000          0.0000          0.0000
      1001        TRIAXIAL          0.0000          0.0000          0.0000          0.0000          0.0000          0.0000
      1002        TRIAXIAL          0.0000          0.0000          0.0000          0.0000          0.0000          0.0000
      1003        TRIAXIAL          0.0000          0.0000          0.0000          0.0000          0.0000          0.0000
      1004        TRIAXIAL          0.0000          0.0000          0.0000          0.0000          0.0000          0.0000
      1005        TRIAXIAL          0.0000          0.0000          0.0000          0.0000          0.0000          0.0000
      1006        TRIAXIAL          0.0000          0.0000          0.0000          0.0000          0.0000          0.0000
      1007        TRIAXIAL          0.0000          0.0000          0.0000          0.0000          0.0000          0.0000
      1008        TRIAXIAL          0.0000          0.0000          0.0000          0.0000          0.0000          0.0000
      1009        TRIAXIAL          0.0000          0.0000          0.0000          0.0000          0.0000          0.0000
      1010        TRIAXIAL          0.0000          0.0000          0.0000          0.0000          0.0000          0.0000
      1011        TRIAXIAL          0.0000          0.0000          0.0000          0.0000          0.0000          0.0000
      1012        TRIAXIAL          0.0000          0.0000          0.0000          0.0000          0.0000          0.0000
      1013        TRIAXIAL          0.0000          0.0000          0.0000          0.0000          0.0000          0.0000
      1014        TRIAXIAL          0.0000          0.0000          0.0000          0.0000          0.0000          0.0000
      1015        TRIAXIAL          0.0000          0.0000          0.0000          0.0000          0.0000          0.0000
      1016        TRIAXIAL          0.0000          0.0000          0.0000          0.0000          0.0000          0.0000
      1017        TRIAXIAL          0.0000          0.0000          0.0000          0.0000          0.0000          0.0000
      1018        TRIAXIAL          0.0000          0.0000          0.0000          0.0000          0.0000          0.0000
      1019        TRIAXIAL          0.0000          0.0000          0.0000          0.0000          0.0000          0.0000
**************************************************************************************************************************** 
ELEMENT_10: 
**************************************************************************************************************************** 
	 Maximum stress: 

	 	 	 	 	 	 	 	 	 Max value [MPa] Element ID 	 	 Material 
	    Sigma_xx           0.0000        186                PAINT 
	    Sigma_yy           0.0000        186                PAINT 
	    Sigma_xy           0.0000        186                PAINT 
	    Sigma_xz           0.0000        186                PAINT 
	    Sigma_yz           0.0000        186                PAINT 
	    Sigma_zz           0.0000        186                PAINT 

	 Minimum stress: 

	 	 	 	 	 	 	 	 	 Min value [MPa] Element ID 	 	 Material 
	   Sigma_xx           0.0000        186                PAINT 
	   Sigma_yy           0.0000        186                PAINT 
	   Sigma_xy           0.0000        186                PAINT 
	   Sigma_xz           0.0000        186                PAINT 
	   Sigma_yz           0.0000        186                PAINT 
	   Sigma_zz           0.0000        186                PAINT 

**************************************************************************************************************************** 
	 Element:   Material        sigma_xx [Mpa]  sigma_yy [Mpa]  sigma_xy [Mpa]  sigma_xz [Mpa]  sigma_yz [Mpa]  sigma_zz [Mpa]  
       186           PAINT          0.0000          0.0000          0.0000          0.0000          0.0000          0.0000
       187           PAINT          0.0000          0.0000          0.0000          0.0000          0.0000          0.0000
       188           PAINT          0.0000          0.0000          0.0000          0.0000          0.0000          0.0000
       189           PAINT          0.0000          0.0000          0.0000          0.0000          0.0000          0.0000
       190           PAINT          0.0000          0.0000          0.0000          0.0000          0.0000          0.0000
       191           PAINT          0.0000          0.0000          0.0000          0.0000          0.0000          0.0000
       192           PAINT          0.0000          0.0000          0.0000          0.0000          0.0000          0.0000
       193           PAINT          0.0000          0.0000          0.0000          0.0000          0.0000          0.0000
       194           PAINT          0.0000          0.0000          0.0000          0.0000          0.0000          0.0000
       195           PAINT          0.0000          0.0000          0.0000          0.0000          0.0000          0.0000
       196           PAINT          0.0000          0.0000          0.0000          0.0000          0.0000          0.0000
       197           PAINT          0.0000          0.0000          0.0000          0.0000          0.0000          0.0000
       198           PAINT          0.0000          0.0000          0.0000          0.0000          0.0000          0.0000
       464        TRIAXIAL          0.0000          0.0000          0.0000          0.0000          0.0000          0.0000
       465        TRIAXIAL          0.0000          0.0000          0.0000          0.0000          0.0000          0.0000
       466        TRIAXIAL          0.0000          0.0000          0.0000          0.0000          0.0000          0.0000
       467        TRIAXIAL          0.0000          0.0000          0.0000          0.0000          0.0000          0.0000
       468        TRIAXIAL          0.0000          0.0000          0.0000          0.0000          0.0000          0.0000
       469        TRIAXIAL          0.0000          0.0000          0.0000          0.0000          0.0000          0.0000
       470        TRIAXIAL          0.0000          0.0000          0.0000          0.0000          0.0000          0.0000
       471        TRIAXIAL          0.0000          0.0000          0.0000          0.0000          0.0000          0.0000
       472        TRIAXIAL          0.0000          0.0000          0.0000          0.0000          0.0000          0.0000
       473        TRIAXIAL          0.0000          0.0000          0.0000          0.0000          0.0000          0.0000
       474        TRIAXIAL          0.0000          0.0000          0.0000          0.0000          0.0000          0.0000
       475        TRIAXIAL          0.0000          0.0000          0.0000          0.0000          0.0000          0.0000
       476        TRIAXIAL          0.0000          0.0000          0.0000          0.0000          0.0000          0.0000
       742           BALSA          0.0000          0.0000          0.0000          0.0000          0.0000          0.0000
       743           BALSA          0.0000          0.0000          0.0000          0.0000          0.0000          0.0000
       744           BALSA          0.0000          0.0000          0.0000          0.0000          0.0000          0.0000
       745           BALSA          0.0000          0.0000          0.0000          0.0000          0.0000          0.0000
       746           BALSA          0.0000          0.0000          0.0000          0.0000          0.0000          0.0000
       747           BALSA          0.0000          0.0000          0.0000          0.0000          0.0000          0.0000
       748           BALSA          0.0000          0.0000          0.0000          0.0000          0.0000          0.0000
       749           BALSA          0.0000          0.0000          0.0000          0.0000          0.0000          0.0000
       750           BALSA          0.0000          0.0000          0.0000          0.0000          0.0000          0.0000
       751           BALSA          0.0000          0.0000          0.0000          0.0000          0.0000          0.0000
       752           BALSA          0.0000          0.0000          0.0000          0.0000          0.0000          0.0000
       753           BALSA          0.0000          0.0000          0.0000          0.0000          0.0000          0.0000
       754           BALSA          0.0000          0.0000          0.0000          0.0000          0.0000          0.0000
      1020        TRIAXIAL          0.0000          0.0000          0.0000          0.0000          0.0000          0.0000
      1021        TRIAXIAL          0.0000          0.0000          0.0000          0.0000          0.0000          0.0000
      1022        TRIAXIAL          0.0000          0.0000          0.0000          0.0000          0.0000          0.0000
      1023        TRIAXIAL          0.0000          0.0000          0.0000          0.0000          0.0000          0.0000
      1024        TRIAXIAL          0.0000          0.0000          0.0000          0.0000          0.0000          0.0000
      1025        TRIAXIAL          0.0000          0.0000          0.0000          0.0000          0.0000          0.0000
      1026        TRIAXIAL          0.0000          0.0000          0.0000          0.0000          0.0000          0.0000
      1027        TRIAXIAL          0.0000          0.0000          0.0000          0.0000          0.0000          0.0000
      1028        TRIAXIAL          0.0000          0.0000          0.0000          0.0000          0.0000          0.0000
      1029        TRIAXIAL          0.0000          0.0000          0.0000          0.0000          0.0000          0.0000
      1030        TRIAXIAL          0.0000          0.0000          0.0000          0.0000          0.0000          0.0000
      1031        TRIAXIAL          0.0000          0.0000          0.0000          0.0000          0.0000          0.0000
      1032        TRIAXIAL          0.0000          0.0000          0.0000          0.0000          0.0000          0.0000
**************************************************************************************************************************** 
ELEMENT_11: 
**************************************************************************************************************************** 
	 Maximum stress: 

	 	 	 	 	 	 	 	 	 Max value [MPa] Element ID 	 	 Material 
	    Sigma_xx           0.0000        199              BIAXIAL 
	    Sigma_yy           0.0000        199              BIAXIAL 
	    Sigma_xy           0.0000        199              BIAXIAL 
	    Sigma_xz           0.0000        199              BIAXIAL 
	    Sigma_yz           0.0000        199              BIAXIAL 
	    Sigma_zz           0.0000        199              BIAXIAL 

	 Minimum stress: 

	 	 	 	 	 	 	 	 	 Min value [MPa] Element ID 	 	 Material 
	   Sigma_xx           0.0000        199              BIAXIAL 
	   Sigma_yy           0.0000        199              BIAXIAL 
	   Sigma_xy           0.0000        199              BIAXIAL 
	   Sigma_xz           0.0000        199              BIAXIAL 
	   Sigma_yz           0.0000        199              BIAXIAL 
	   Sigma_zz           0.0000        199              BIAXIAL 

**************************************************************************************************************************** 
	 Element:   Material        sigma_xx [Mpa]  sigma_yy [Mpa]  sigma_xy [Mpa]  sigma_xz [Mpa]  sigma_yz [Mpa]  sigma_zz [Mpa]  
       199         BIAXIAL          0.0000          0.0000          0.0000          0.0000          0.0000          0.0000
       200         BIAXIAL          0.0000          0.0000          0.0000          0.0000          0.0000          0.0000
       201         BIAXIAL          0.0000          0.0000          0.0000          0.0000          0.0000          0.0000
       202         BIAXIAL          0.0000          0.0000          0.0000          0.0000          0.0000          0.0000
       203         BIAXIAL          0.0000          0.0000          0.0000          0.0000          0.0000          0.0000
       204         BIAXIAL          0.0000          0.0000          0.0000          0.0000          0.0000          0.0000
       205         BIAXIAL          0.0000          0.0000          0.0000          0.0000          0.0000          0.0000
       206         BIAXIAL          0.0000          0.0000          0.0000          0.0000          0.0000          0.0000
       207         BIAXIAL          0.0000          0.0000          0.0000          0.0000          0.0000          0.0000
       208         BIAXIAL          0.0000          0.0000          0.0000          0.0000          0.0000          0.0000
       209         BIAXIAL          0.0000          0.0000          0.0000          0.0000          0.0000          0.0000
       210         BIAXIAL          0.0000          0.0000          0.0000          0.0000          0.0000          0.0000
       211         BIAXIAL          0.0000          0.0000          0.0000          0.0000          0.0000          0.0000
       212         BIAXIAL          0.0000          0.0000          0.0000          0.0000          0.0000          0.0000
       213         BIAXIAL          0.0000          0.0000          0.0000          0.0000          0.0000          0.0000
       214         BIAXIAL          0.0000          0.0000          0.0000          0.0000          0.0000          0.0000
       215         BIAXIAL          0.0000          0.0000          0.0000          0.0000          0.0000          0.0000
       216         BIAXIAL          0.0000          0.0000          0.0000          0.0000          0.0000          0.0000
       217         BIAXIAL          0.0000          0.0000          0.0000          0.0000          0.0000          0.0000
       218         BIAXIAL          0.0000          0.0000          0.0000          0.0000          0.0000          0.0000
       219         BIAXIAL          0.0000          0.0000          0.0000          0.0000          0.0000          0.0000
       220         BIAXIAL          0.0000          0.0000          0.0000          0.0000          0.0000          0.0000
       221         BIAXIAL          0.0000          0.0000          0.0000          0.0000          0.0000          0.0000
       222         BIAXIAL          0.0000          0.0000          0.0000          0.0000          0.0000          0.0000
       223         BIAXIAL          0.0000          0.0000          0.0000          0.0000          0.0000          0.0000
       224         BIAXIAL          0.0000          0.0000          0.0000          0.0000          0.0000          0.0000
       225         BIAXIAL          0.0000          0.0000          0.0000          0.0000          0.0000          0.0000
       226         BIAXIAL          0.0000          0.0000          0.0000          0.0000          0.0000          0.0000
       227         BIAXIAL          0.0000          0.0000          0.0000          0.0000          0.0000          0.0000
       228         BIAXIAL          0.0000          0.0000          0.0000          0.0000          0.0000          0.0000
       229         BIAXIAL          0.0000          0.0000          0.0000          0.0000          0.0000          0.0000
       230         BIAXIAL          0.0000          0.0000          0.0000          0.0000          0.0000          0.0000
       231         BIAXIAL          0.0000          0.0000          0.0000          0.0000          0.0000          0.0000
       232         BIAXIAL          0.0000          0.0000          0.0000          0.0000          0.0000          0.0000
       233         BIAXIAL          0.0000          0.0000          0.0000          0.0000          0.0000          0.0000
       234         BIAXIAL          0.0000          0.0000          0.0000          0.0000          0.0000          0.0000
       235         BIAXIAL          0.0000          0.0000          0.0000          0.0000          0.0000          0.0000
       236         BIAXIAL          0.0000          0.0000          0.0000          0.0000          0.0000          0.0000
       237         BIAXIAL          0.0000          0.0000          0.0000          0.0000          0.0000          0.0000
       238         BIAXIAL          0.0000          0.0000          0.0000          0.0000          0.0000          0.0000
       477           BALSA          0.0000          0.0000          0.0000          0.0000          0.0000          0.0000
       478           BALSA          0.0000          0.0000          0.0000          0.0000          0.0000          0.0000
       479           BALSA          0.0000          0.0000          0.0000          0.0000          0.0000          0.0000
       480           BALSA          0.0000          0.0000          0.0000          0.0000          0.0000          0.0000
       481           BALSA          0.0000          0.0000          0.0000          0.0000          0.0000          0.0000
       482           BALSA          0.0000          0.0000          0.0000          0.0000          0.0000          0.0000
       483           BALSA          0.0000          0.0000          0.0000          0.0000          0.0000          0.0000
       484           BALSA          0.0000          0.0000          0.0000          0.0000          0.0000          0.0000
       485           BALSA          0.0000          0.0000          0.0000          0.0000          0.0000          0.0000
       486           BALSA          0.0000          0.0000          0.0000          0.0000          0.0000          0.0000
       487           BALSA          0.0000          0.0000          0.0000          0.0000          0.0000          0.0000
       488           BALSA          0.0000          0.0000          0.0000          0.0000          0.0000          0.0000
       489           BALSA          0.0000          0.0000          0.0000          0.0000          0.0000          0.0000
       490           BALSA          0.0000          0.0000          0.0000          0.0000          0.0000          0.0000
       491           BALSA          0.0000          0.0000          0.0000          0.0000          0.0000          0.0000
       492           BALSA          0.0000          0.0000          0.0000          0.0000          0.0000          0.0000
       493           BALSA          0.0000          0.0000          0.0000          0.0000          0.0000          0.0000
       494           BALSA          0.0000          0.0000          0.0000          0.0000          0.0000          0.0000
       495           BALSA          0.0000          0.0000          0.0000          0.0000          0.0000          0.0000
       496           BALSA          0.0000          0.0000          0.0000          0.0000          0.0000          0.0000
       497           BALSA          0.0000          0.0000          0.0000          0.0000          0.0000          0.0000
       498           BALSA          0.0000          0.0000          0.0000          0.0000          0.0000          0.0000
       499           BALSA          0.0000          0.0000          0.0000          0.0000          0.0000          0.0000
       500           BALSA          0.0000          0.0000          0.0000          0.0000          0.0000          0.0000
       501           BALSA          0.0000          0.0000          0.0000          0.0000          0.0000          0.0000
       502           BALSA          0.0000          0.0000          0.0000          0.0000          0.0000          0.0000
       503           BALSA          0.0000          0.0000          0.0000          0.0000          0.0000          0.0000
       504           BALSA          0.0000          0.0000          0.0000          0.0000          0.0000          0.0000
       505           BALSA          0.0000          0.0000          0.0000          0.0000          0.0000          0.0000
       506           BALSA          0.0000          0.0000          0.0000          0.0000          0.0000          0.0000
       507           BALSA          0.0000          0.0000          0.0000          0.0000          0.0000          0.0000
       508           BALSA          0.0000          0.0000          0.0000          0.0000          0.0000          0.0000
       509           BALSA          0.0000          0.0000          0.0000          0.0000          0.0000          0.0000
       510           BALSA          0.0000          0.0000          0.0000          0.0000          0.0000          0.0000
       511           BALSA          0.0000          0.0000          0.0000          0.0000          0.0000          0.0000
       512           BALSA          0.0000          0.0000          0.0000          0.0000          0.0000          0.0000
       513           BALSA          0.0000          0.0000          0.0000          0.0000          0.0000          0.0000
       514           BALSA          0.0000          0.0000          0.0000          0.0000          0.0000          0.0000
       515           BALSA          0.0000          0.0000          0.0000          0.0000          0.0000          0.0000
       516           BALSA          0.0000          0.0000          0.0000          0.0000          0.0000          0.0000
       755           BALSA          0.0000          0.0000          0.0000          0.0000          0.0000          0.0000
       756           BALSA          0.0000          0.0000          0.0000          0.0000          0.0000          0.0000
       757           BALSA          0.0000          0.0000          0.0000          0.0000          0.0000          0.0000
       758           BALSA          0.0000          0.0000          0.0000          0.0000          0.0000          0.0000
       759           BALSA          0.0000          0.0000          0.0000          0.0000          0.0000          0.0000
       760           BALSA          0.0000          0.0000          0.0000          0.0000          0.0000          0.0000
       761           BALSA          0.0000          0.0000          0.0000          0.0000          0.0000          0.0000
       762           BALSA          0.0000          0.0000          0.0000          0.0000          0.0000          0.0000
       763           BALSA          0.0000          0.0000          0.0000          0.0000          0.0000          0.0000
       764           BALSA          0.0000          0.0000          0.0000          0.0000          0.0000          0.0000
       765           BALSA          0.0000          0.0000          0.0000          0.0000          0.0000          0.0000
       766           BALSA          0.0000          0.0000          0.0000          0.0000          0.0000          0.0000
       767           BALSA          0.0000          0.0000          0.0000          0.0000          0.0000          0.0000
       768           BALSA          0.0000          0.0000          0.0000          0.0000          0.0000          0.0000
       769           BALSA          0.0000          0.0000          0.0000          0.0000          0.0000          0.0000
       770           BALSA          0.0000          0.0000          0.0000          0.0000          0.0000          0.0000
       771           BALSA          0.0000          0.0000          0.0000          0.0000          0.0000          0.0000
       772           BALSA          0.0000          0.0000          0.0000          0.0000          0.0000          0.0000
       773           BALSA          0.0000          0.0000          0.0000          0.0000          0.0000          0.0000
       774           BALSA          0.0000          0.0000          0.0000          0.0000          0.0000          0.0000
       775           BALSA          0.0000          0.0000          0.0000          0.0000          0.0000          0.0000
       776           BALSA          0.0000          0.0000          0.0000          0.0000          0.0000          0.0000
       777           BALSA          0.0000          0.0000          0.0000          0.0000          0.0000          0.0000
       778           BALSA          0.0000          0.0000          0.0000          0.0000          0.0000          0.0000
       779           BALSA          0.0000          0.0000          0.0000          0.0000          0.0000          0.0000
       780           BALSA          0.0000          0.0000          0.0000          0.0000          0.0000          0.0000
       781           BALSA          0.0000          0.0000          0.0000          0.0000          0.0000          0.0000
       782           BALSA          0.0000          0.0000          0.0000          0.0000          0.0000          0.0000
       783           BALSA          0.0000          0.0000          0.0000          0.0000          0.0000          0.0000
       784           BALSA          0.0000          0.0000          0.0000          0.0000          0.0000          0.0000
       785           BALSA          0.0000          0.0000          0.0000          0.0000          0.0000          0.0000
       786           BALSA          0.0000          0.0000          0.0000          0.0000          0.0000          0.0000
       787           BALSA          0.0000          0.0000          0.0000          0.0000          0.0000          0.0000
       788           BALSA          0.0000          0.0000          0.0000          0.0000          0.0000          0.0000
       789           BALSA          0.0000          0.0000          0.0000          0.0000          0.0000          0.0000
       790           BALSA          0.0000          0.0000          0.0000          0.0000          0.0000          0.0000
       791           BALSA          0.0000          0.0000          0.0000          0.0000          0.0000          0.0000
       792           BALSA          0.0000          0.0000          0.0000          0.0000          0.0000          0.0000
       793           BALSA          0.0000          0.0000          0.0000          0.0000          0.0000          0.0000
       794           BALSA          0.0000          0.0000          0.0000          0.0000          0.0000          0.0000
      1033         BIAXIAL          0.0000          0.0000          0.0000          0.0000          0.0000          0.0000
      1034         BIAXIAL          0.0000          0.0000          0.0000          0.0000          0.0000          0.0000
      1035         BIAXIAL          0.0000          0.0000          0.0000          0.0000          0.0000          0.0000
      1036         BIAXIAL          0.0000          0.0000          0.0000          0.0000          0.0000          0.0000
      1037         BIAXIAL          0.0000          0.0000          0.0000          0.0000          0.0000          0.0000
      1038         BIAXIAL          0.0000          0.0000          0.0000          0.0000          0.0000          0.0000
      1039         BIAXIAL          0.0000          0.0000          0.0000          0.0000          0.0000          0.0000
      1040         BIAXIAL          0.0000          0.0000          0.0000          0.0000          0.0000          0.0000
      1041         BIAXIAL          0.0000          0.0000          0.0000          0.0000          0.0000          0.0000
      1042         BIAXIAL          0.0000          0.0000          0.0000          0.0000          0.0000          0.0000
      1043         BIAXIAL          0.0000          0.0000          0.0000          0.0000          0.0000          0.0000
      1044         BIAXIAL          0.0000          0.0000          0.0000          0.0000          0.0000          0.0000
      1045         BIAXIAL          0.0000          0.0000          0.0000          0.0000          0.0000          0.0000
      1046         BIAXIAL          0.0000          0.0000          0.0000          0.0000          0.0000          0.0000
      1047         BIAXIAL          0.0000          0.0000          0.0000          0.0000          0.0000          0.0000
      1048         BIAXIAL          0.0000          0.0000          0.0000          0.0000          0.0000          0.0000
      1049         BIAXIAL          0.0000          0.0000          0.0000          0.0000          0.0000          0.0000
      1050         BIAXIAL          0.0000          0.0000          0.0000          0.0000          0.0000          0.0000
      1051         BIAXIAL          0.0000          0.0000          0.0000          0.0000          0.0000          0.0000
      1052         BIAXIAL          0.0000          0.0000          0.0000          0.0000          0.0000          0.0000
      1053         BIAXIAL          0.0000          0.0000          0.0000          0.0000          0.0000          0.0000
      1054         BIAXIAL          0.0000          0.0000          0.0000          0.0000          0.0000          0.0000
      1055         BIAXIAL          0.0000          0.0000          0.0000          0.0000          0.0000          0.0000
      1056         BIAXIAL          0.0000          0.0000          0.0000          0.0000          0.0000          0.0000
      1057         BIAXIAL          0.0000          0.0000          0.0000          0.0000          0.0000          0.0000
      1058         BIAXIAL          0.0000          0.0000          0.0000          0.0000          0.0000          0.0000
      1059         BIAXIAL          0.0000          0.0000          0.0000          0.0000          0.0000          0.0000
      1060         BIAXIAL          0.0000          0.0000          0.0000          0.0000          0.0000          0.0000
      1061         BIAXIAL          0.0000          0.0000          0.0000          0.0000          0.0000          0.0000
      1062         BIAXIAL          0.0000          0.0000          0.0000          0.0000          0.0000          0.0000
      1063         BIAXIAL          0.0000          0.0000          0.0000          0.0000          0.0000          0.0000
      1064         BIAXIAL          0.0000          0.0000          0.0000          0.0000          0.0000          0.0000
      1065         BIAXIAL          0.0000          0.0000          0.0000          0.0000          0.0000          0.0000
      1066         BIAXIAL          0.0000          0.0000          0.0000          0.0000          0.0000          0.0000
      1067         BIAXIAL          0.0000          0.0000          0.0000          0.0000          0.0000          0.0000
      1068         BIAXIAL          0.0000          0.0000          0.0000          0.0000          0.0000          0.0000
      1069         BIAXIAL          0.0000          0.0000          0.0000          0.0000          0.0000          0.0000
      1070         BIAXIAL          0.0000          0.0000          0.0000          0.0000          0.0000          0.0000
      1071         BIAXIAL          0.0000          0.0000          0.0000          0.0000          0.0000          0.0000
      1072         BIAXIAL          0.0000          0.0000          0.0000          0.0000          0.0000          0.0000
**************************************************************************************************************************** 
ELEMENT_12: 
**************************************************************************************************************************** 
	 Maximum stress: 

	 	 	 	 	 	 	 	 	 Max value [MPa] Element ID 	 	 Material 
	    Sigma_xx           0.0000        239              BIAXIAL 
	    Sigma_yy           0.0000        239              BIAXIAL 
	    Sigma_xy           0.0000        239              BIAXIAL 
	    Sigma_xz           0.0000        239              BIAXIAL 
	    Sigma_yz           0.0000        239              BIAXIAL 
	    Sigma_zz           0.0000        239              BIAXIAL 

	 Minimum stress: 

	 	 	 	 	 	 	 	 	 Min value [MPa] Element ID 	 	 Material 
	   Sigma_xx           0.0000        239              BIAXIAL 
	   Sigma_yy           0.0000        239              BIAXIAL 
	   Sigma_xy           0.0000        239              BIAXIAL 
	   Sigma_xz           0.0000        239              BIAXIAL 
	   Sigma_yz           0.0000        239              BIAXIAL 
	   Sigma_zz           0.0000        239              BIAXIAL 

**************************************************************************************************************************** 
	 Element:   Material        sigma_xx [Mpa]  sigma_yy [Mpa]  sigma_xy [Mpa]  sigma_xz [Mpa]  sigma_yz [Mpa]  sigma_zz [Mpa]  
       239         BIAXIAL          0.0000          0.0000          0.0000          0.0000          0.0000          0.0000
       240         BIAXIAL          0.0000          0.0000          0.0000          0.0000          0.0000          0.0000
       241         BIAXIAL          0.0000          0.0000          0.0000          0.0000          0.0000          0.0000
       242         BIAXIAL          0.0000          0.0000          0.0000          0.0000          0.0000          0.0000
       243         BIAXIAL          0.0000          0.0000          0.0000          0.0000          0.0000          0.0000
       244         BIAXIAL          0.0000          0.0000          0.0000          0.0000          0.0000          0.0000
       245         BIAXIAL          0.0000          0.0000          0.0000          0.0000          0.0000          0.0000
       246         BIAXIAL          0.0000          0.0000          0.0000          0.0000          0.0000          0.0000
       247         BIAXIAL          0.0000          0.0000          0.0000          0.0000          0.0000          0.0000
       248         BIAXIAL          0.0000          0.0000          0.0000          0.0000          0.0000          0.0000
       249         BIAXIAL          0.0000          0.0000          0.0000          0.0000          0.0000          0.0000
       250         BIAXIAL          0.0000          0.0000          0.0000          0.0000          0.0000          0.0000
       251         BIAXIAL          0.0000          0.0000          0.0000          0.0000          0.0000          0.0000
       252         BIAXIAL          0.0000          0.0000          0.0000          0.0000          0.0000          0.0000
       253         BIAXIAL          0.0000          0.0000          0.0000          0.0000          0.0000          0.0000
       254         BIAXIAL          0.0000          0.0000          0.0000          0.0000          0.0000          0.0000
       255         BIAXIAL          0.0000          0.0000          0.0000          0.0000          0.0000          0.0000
       256         BIAXIAL          0.0000          0.0000          0.0000          0.0000          0.0000          0.0000
       257         BIAXIAL          0.0000          0.0000          0.0000          0.0000          0.0000          0.0000
       258         BIAXIAL          0.0000          0.0000          0.0000          0.0000          0.0000          0.0000
       259         BIAXIAL          0.0000          0.0000          0.0000          0.0000          0.0000          0.0000
       260         BIAXIAL          0.0000          0.0000          0.0000          0.0000          0.0000          0.0000
       261         BIAXIAL          0.0000          0.0000          0.0000          0.0000          0.0000          0.0000
       262         BIAXIAL          0.0000          0.0000          0.0000          0.0000          0.0000          0.0000
       263         BIAXIAL          0.0000          0.0000          0.0000          0.0000          0.0000          0.0000
       264         BIAXIAL          0.0000          0.0000          0.0000          0.0000          0.0000          0.0000
       265         BIAXIAL          0.0000          0.0000          0.0000          0.0000          0.0000          0.0000
       266         BIAXIAL          0.0000          0.0000          0.0000          0.0000          0.0000          0.0000
       267         BIAXIAL          0.0000          0.0000          0.0000          0.0000          0.0000          0.0000
       268         BIAXIAL          0.0000          0.0000          0.0000          0.0000          0.0000          0.0000
       269         BIAXIAL          0.0000          0.0000          0.0000          0.0000          0.0000          0.0000
       270         BIAXIAL          0.0000          0.0000          0.0000          0.0000          0.0000          0.0000
       271         BIAXIAL          0.0000          0.0000          0.0000          0.0000          0.0000          0.0000
       272         BIAXIAL          0.0000          0.0000          0.0000          0.0000          0.0000          0.0000
       273         BIAXIAL          0.0000          0.0000          0.0000          0.0000          0.0000          0.0000
       274         BIAXIAL          0.0000          0.0000          0.0000          0.0000          0.0000          0.0000
       275         BIAXIAL          0.0000          0.0000          0.0000          0.0000          0.0000          0.0000
       276         BIAXIAL          0.0000          0.0000          0.0000          0.0000          0.0000          0.0000
       277         BIAXIAL          0.0000          0.0000          0.0000          0.0000          0.0000          0.0000
       278         BIAXIAL          0.0000          0.0000          0.0000          0.0000          0.0000          0.0000
       517           BALSA          0.0000          0.0000          0.0000          0.0000          0.0000          0.0000
       518           BALSA          0.0000          0.0000          0.0000          0.0000          0.0000          0.0000
       519           BALSA          0.0000          0.0000          0.0000          0.0000          0.0000          0.0000
       520           BALSA          0.0000          0.0000          0.0000          0.0000          0.0000          0.0000
       521           BALSA          0.0000          0.0000          0.0000          0.0000          0.0000          0.0000
       522           BALSA          0.0000          0.0000          0.0000          0.0000          0.0000          0.0000
       523           BALSA          0.0000          0.0000          0.0000          0.0000          0.0000          0.0000
       524           BALSA          0.0000          0.0000          0.0000          0.0000          0.0000          0.0000
       525           BALSA          0.0000          0.0000          0.0000          0.0000          0.0000          0.0000
       526           BALSA          0.0000          0.0000          0.0000          0.0000          0.0000          0.0000
       527           BALSA          0.0000          0.0000          0.0000          0.0000          0.0000          0.0000
       528           BALSA          0.0000          0.0000          0.0000          0.0000          0.0000          0.0000
       529           BALSA          0.0000          0.0000          0.0000          0.0000          0.0000          0.0000
       530           BALSA          0.0000          0.0000          0.0000          0.0000          0.0000          0.0000
       531           BALSA          0.0000          0.0000          0.0000          0.0000          0.0000          0.0000
       532           BALSA          0.0000          0.0000          0.0000          0.0000          0.0000          0.0000
       533           BALSA          0.0000          0.0000          0.0000          0.0000          0.0000          0.0000
       534           BALSA          0.0000          0.0000          0.0000          0.0000          0.0000          0.0000
       535           BALSA          0.0000          0.0000          0.0000          0.0000          0.0000          0.0000
       536           BALSA          0.0000          0.0000          0.0000          0.0000          0.0000          0.0000
       537           BALSA          0.0000          0.0000          0.0000          0.0000          0.0000          0.0000
       538           BALSA          0.0000          0.0000          0.0000          0.0000          0.0000          0.0000
       539           BALSA          0.0000          0.0000          0.0000          0.0000          0.0000          0.0000
       540           BALSA          0.0000          0.0000          0.0000          0.0000          0.0000          0.0000
       541           BALSA          0.0000          0.0000          0.0000          0.0000          0.0000          0.0000
       542           BALSA          0.0000          0.0000          0.0000          0.0000          0.0000          0.0000
       543           BALSA          0.0000          0.0000          0.0000          0.0000          0.0000          0.0000
       544           BALSA          0.0000          0.0000          0.0000          0.0000          0.0000          0.0000
       545           BALSA          0.0000          0.0000          0.0000          0.0000          0.0000          0.0000
       546           BALSA          0.0000          0.0000          0.0000          0.0000          0.0000          0.0000
       547           BALSA          0.0000          0.0000          0.0000          0.0000          0.0000          0.0000
       548           BALSA          0.0000          0.0000          0.0000          0.0000          0.0000          0.0000
       549           BALSA          0.0000          0.0000          0.0000          0.0000          0.0000          0.0000
       550           BALSA          0.0000          0.0000          0.0000          0.0000          0.0000          0.0000
       551           BALSA          0.0000          0.0000          0.0000          0.0000          0.0000          0.0000
       552           BALSA          0.0000          0.0000          0.0000          0.0000          0.0000          0.0000
       553           BALSA          0.0000          0.0000          0.0000          0.0000          0.0000          0.0000
       554           BALSA          0.0000          0.0000          0.0000          0.0000          0.0000          0.0000
       555           BALSA          0.0000          0.0000          0.0000          0.0000          0.0000          0.0000
       556           BALSA          0.0000          0.0000          0.0000          0.0000          0.0000          0.0000
       795           BALSA          0.0000          0.0000          0.0000          0.0000          0.0000          0.0000
       796           BALSA          0.0000          0.0000          0.0000          0.0000          0.0000          0.0000
       797           BALSA          0.0000          0.0000          0.0000          0.0000          0.0000          0.0000
       798           BALSA          0.0000          0.0000          0.0000          0.0000          0.0000          0.0000
       799           BALSA          0.0000          0.0000          0.0000          0.0000          0.0000          0.0000
       800           BALSA          0.0000          0.0000          0.0000          0.0000          0.0000          0.0000
       801           BALSA          0.0000          0.0000          0.0000          0.0000          0.0000          0.0000
       802           BALSA          0.0000          0.0000          0.0000          0.0000          0.0000          0.0000
       803           BALSA          0.0000          0.0000          0.0000          0.0000          0.0000          0.0000
       804           BALSA          0.0000          0.0000          0.0000          0.0000          0.0000          0.0000
       805           BALSA          0.0000          0.0000          0.0000          0.0000          0.0000          0.0000
       806           BALSA          0.0000          0.0000          0.0000          0.0000          0.0000          0.0000
       807           BALSA          0.0000          0.0000          0.0000          0.0000          0.0000          0.0000
       808           BALSA          0.0000          0.0000          0.0000          0.0000          0.0000          0.0000
       809           BALSA          0.0000          0.0000          0.0000          0.0000          0.0000          0.0000
       810           BALSA          0.0000          0.0000          0.0000          0.0000          0.0000          0.0000
       811           BALSA          0.0000          0.0000          0.0000          0.0000          0.0000          0.0000
       812           BALSA          0.0000          0.0000          0.0000          0.0000          0.0000          0.0000
       813           BALSA          0.0000          0.0000          0.0000          0.0000          0.0000          0.0000
       814           BALSA          0.0000          0.0000          0.0000          0.0000          0.0000          0.0000
       815           BALSA          0.0000          0.0000          0.0000          0.0000          0.0000          0.0000
       816           BALSA          0.0000          0.0000          0.0000          0.0000          0.0000          0.0000
       817           BALSA          0.0000          0.0000          0.0000          0.0000          0.0000          0.0000
       818           BALSA          0.0000          0.0000          0.0000          0.0000          0.0000          0.0000
       819           BALSA          0.0000          0.0000          0.0000          0.0000          0.0000          0.0000
       820           BALSA          0.0000          0.0000          0.0000          0.0000          0.0000          0.0000
       821           BALSA          0.0000          0.0000          0.0000          0.0000          0.0000          0.0000
       822           BALSA          0.0000          0.0000          0.0000          0.0000          0.0000          0.0000
       823           BALSA          0.0000          0.0000          0.0000          0.0000          0.0000          0.0000
       824           BALSA          0.0000          0.0000          0.0000          0.0000          0.0000          0.0000
       825           BALSA          0.0000          0.0000          0.0000          0.0000          0.0000          0.0000
       826           BALSA          0.0000          0.0000          0.0000          0.0000          0.0000          0.0000
       827           BALSA          0.0000          0.0000          0.0000          0.0000          0.0000          0.0000
       828           BALSA          0.0000          0.0000          0.0000          0.0000          0.0000          0.0000
       829           BALSA          0.0000          0.0000          0.0000          0.0000          0.0000          0.0000
       830           BALSA          0.0000          0.0000          0.0000          0.0000          0.0000          0.0000
       831           BALSA          0.0000          0.0000          0.0000          0.0000          0.0000          0.0000
       832           BALSA          0.0000          0.0000          0.0000          0.0000          0.0000          0.0000
       833           BALSA          0.0000          0.0000          0.0000          0.0000          0.0000          0.0000
       834           BALSA          0.0000          0.0000          0.0000          0.0000          0.0000          0.0000
      1073         BIAXIAL          0.0000          0.0000          0.0000          0.0000          0.0000          0.0000
      1074         BIAXIAL          0.0000          0.0000          0.0000          0.0000          0.0000          0.0000
      1075         BIAXIAL          0.0000          0.0000          0.0000          0.0000          0.0000          0.0000
      1076         BIAXIAL          0.0000          0.0000          0.0000          0.0000          0.0000          0.0000
      1077         BIAXIAL          0.0000          0.0000          0.0000          0.0000          0.0000          0.0000
      1078         BIAXIAL          0.0000          0.0000          0.0000          0.0000          0.0000          0.0000
      1079         BIAXIAL          0.0000          0.0000          0.0000          0.0000          0.0000          0.0000
      1080         BIAXIAL          0.0000          0.0000          0.0000          0.0000          0.0000          0.0000
      1081         BIAXIAL          0.0000          0.0000          0.0000          0.0000          0.0000          0.0000
      1082         BIAXIAL          0.0000          0.0000          0.0000          0.0000          0.0000          0.0000
      1083         BIAXIAL          0.0000          0.0000          0.0000          0.0000          0.0000          0.0000
      1084         BIAXIAL          0.0000          0.0000          0.0000          0.0000          0.0000          0.0000
      1085         BIAXIAL          0.0000          0.0000          0.0000          0.0000          0.0000          0.0000
      1086         BIAXIAL          0.0000          0.0000          0.0000          0.0000          0.0000          0.0000
      1087         BIAXIAL          0.0000          0.0000          0.0000          0.0000          0.0000          0.0000
      1088         BIAXIAL          0.0000          0.0000          0.0000          0.0000          0.0000          0.0000
      1089         BIAXIAL          0.0000          0.0000          0.0000          0.0000          0.0000          0.0000
      1090         BIAXIAL          0.0000          0.0000          0.0000          0.0000          0.0000          0.0000
      1091         BIAXIAL          0.0000          0.0000          0.0000          0.0000          0.0000          0.0000
      1092         BIAXIAL          0.0000          0.0000          0.0000          0.0000          0.0000          0.0000
      1093         BIAXIAL          0.0000          0.0000          0.0000          0.0000          0.0000          0.0000
      1094         BIAXIAL          0.0000          0.0000          0.0000          0.0000          0.0000          0.0000
      1095         BIAXIAL          0.0000          0.0000          0.0000          0.0000          0.0000          0.0000
      1096         BIAXIAL          0.0000          0.0000          0.0000          0.0000          0.0000          0.0000
      1097         BIAXIAL          0.0000          0.0000          0.0000          0.0000          0.0000          0.0000
      1098         BIAXIAL          0.0000          0.0000          0.0000          0.0000          0.0000          0.0000
      1099         BIAXIAL          0.0000          0.0000          0.0000          0.0000          0.0000          0.0000
      1100         BIAXIAL          0.0000          0.0000          0.0000          0.0000          0.0000          0.0000
      1101         BIAXIAL          0.0000          0.0000          0.0000          0.0000          0.0000          0.0000
      1102         BIAXIAL          0.0000          0.0000          0.0000          0.0000          0.0000          0.0000
      1103         BIAXIAL          0.0000          0.0000          0.0000          0.0000          0.0000          0.0000
      1104         BIAXIAL          0.0000          0.0000          0.0000          0.0000          0.0000          0.0000
      1105         BIAXIAL          0.0000          0.0000          0.0000          0.0000          0.0000          0.0000
      1106         BIAXIAL          0.0000          0.0000          0.0000          0.0000          0.0000          0.0000
      1107         BIAXIAL          0.0000          0.0000          0.0000          0.0000          0.0000          0.0000
      1108         BIAXIAL          0.0000          0.0000          0.0000          0.0000          0.0000          0.0000
      1109         BIAXIAL          0.0000          0.0000          0.0000          0.0000          0.0000          0.0000
      1110         BIAXIAL          0.0000          0.0000          0.0000          0.0000          0.0000          0.0000
      1111         BIAXIAL          0.0000          0.0000          0.0000          0.0000          0.0000          0.0000
      1112         BIAXIAL          0.0000          0.0000          0.0000          0.0000          0.0000          0.0000
