**************************************************************************************************************************** 
ELEMENT_1: 
**************************************************************************************************************************** 
	 Maximum stress: 

	 	 	 	 	 	 	 	 	 Max value [MPa] Element ID 	 	 Material 
	    Sigma_xx           0.0000          1                PAINT 
	    Sigma_yy           0.0000          1                PAINT 
	    Sigma_xy           0.0000          1                PAINT 
	    Sigma_xz           0.0000          1                PAINT 
	    Sigma_yz           0.0000          1                PAINT 
	    Sigma_zz           0.0000          1                PAINT 

	 Minimum stress: 

	 	 	 	 	 	 	 	 	 Min value [MPa] Element ID 	 	 Material 
	   Sigma_xx           0.0000          1                PAINT 
	   Sigma_yy           0.0000          1                PAINT 
	   Sigma_xy           0.0000          1                PAINT 
	   Sigma_xz           0.0000          1                PAINT 
	   Sigma_yz           0.0000          1                PAINT 
	   Sigma_zz           0.0000          1                PAINT 

**************************************************************************************************************************** 
	 Element:   Material        sigma_xx [Mpa]  sigma_yy [Mpa]  sigma_xy [Mpa]  sigma_xz [Mpa]  sigma_yz [Mpa]  sigma_zz [Mpa]  
         1           PAINT          0.0000          0.0000          0.0000          0.0000          0.0000          0.0000
         2           PAINT          0.0000          0.0000          0.0000          0.0000          0.0000          0.0000
         3           PAINT          0.0000          0.0000          0.0000          0.0000          0.0000          0.0000
         4           PAINT          0.0000          0.0000          0.0000          0.0000          0.0000          0.0000
         5           PAINT          0.0000          0.0000          0.0000          0.0000          0.0000          0.0000
         6           PAINT          0.0000          0.0000          0.0000          0.0000          0.0000          0.0000
         7           PAINT          0.0000          0.0000          0.0000          0.0000          0.0000          0.0000
         8           PAINT          0.0000          0.0000          0.0000          0.0000          0.0000          0.0000
         9           PAINT          0.0000          0.0000          0.0000          0.0000          0.0000          0.0000
        10           PAINT          0.0000          0.0000          0.0000          0.0000          0.0000          0.0000
       234        TRIAXIAL          0.0000          0.0000          0.0000          0.0000          0.0000          0.0000
       235        TRIAXIAL          0.0000          0.0000          0.0000          0.0000          0.0000          0.0000
       236        TRIAXIAL          0.0000          0.0000          0.0000          0.0000          0.0000          0.0000
       237        TRIAXIAL          0.0000          0.0000          0.0000          0.0000          0.0000          0.0000
       238        TRIAXIAL          0.0000          0.0000          0.0000          0.0000          0.0000          0.0000
       239        TRIAXIAL          0.0000          0.0000          0.0000          0.0000          0.0000          0.0000
       240        TRIAXIAL          0.0000          0.0000          0.0000          0.0000          0.0000          0.0000
       241        TRIAXIAL          0.0000          0.0000          0.0000          0.0000          0.0000          0.0000
       242        TRIAXIAL          0.0000          0.0000          0.0000          0.0000          0.0000          0.0000
       243        TRIAXIAL          0.0000          0.0000          0.0000          0.0000          0.0000          0.0000
       467   REINFORCEMENT          0.0000          0.0000          0.0000          0.0000          0.0000          0.0000
       468   REINFORCEMENT          0.0000          0.0000          0.0000          0.0000          0.0000          0.0000
       469   REINFORCEMENT          0.0000          0.0000          0.0000          0.0000          0.0000          0.0000
       470   REINFORCEMENT          0.0000          0.0000          0.0000          0.0000          0.0000          0.0000
       471   REINFORCEMENT          0.0000          0.0000          0.0000          0.0000          0.0000          0.0000
       472   REINFORCEMENT          0.0000          0.0000          0.0000          0.0000          0.0000          0.0000
       473   REINFORCEMENT          0.0000          0.0000          0.0000          0.0000          0.0000          0.0000
       474   REINFORCEMENT          0.0000          0.0000          0.0000          0.0000          0.0000          0.0000
       475   REINFORCEMENT          0.0000          0.0000          0.0000          0.0000          0.0000          0.0000
       476   REINFORCEMENT          0.0000          0.0000          0.0000          0.0000          0.0000          0.0000
       700        TRIAXIAL          0.0000          0.0000          0.0000          0.0000          0.0000          0.0000
       701        TRIAXIAL          0.0000          0.0000          0.0000          0.0000          0.0000          0.0000
       702        TRIAXIAL          0.0000          0.0000          0.0000          0.0000          0.0000          0.0000
       703        TRIAXIAL          0.0000          0.0000          0.0000          0.0000          0.0000          0.0000
       704        TRIAXIAL          0.0000          0.0000          0.0000          0.0000          0.0000          0.0000
       705        TRIAXIAL          0.0000          0.0000          0.0000          0.0000          0.0000          0.0000
       706        TRIAXIAL          0.0000          0.0000          0.0000          0.0000          0.0000          0.0000
       707        TRIAXIAL          0.0000          0.0000          0.0000          0.0000          0.0000          0.0000
       708        TRIAXIAL          0.0000          0.0000          0.0000          0.0000          0.0000          0.0000
       709        TRIAXIAL          0.0000          0.0000          0.0000          0.0000          0.0000          0.0000
**************************************************************************************************************************** 
ELEMENT_2: 
**************************************************************************************************************************** 
	 Maximum stress: 

	 	 	 	 	 	 	 	 	 Max value [MPa] Element ID 	 	 Material 
	    Sigma_xx           0.0000         11                PAINT 
	    Sigma_yy           0.0000         11                PAINT 
	    Sigma_xy           0.0000         11                PAINT 
	    Sigma_xz           0.0000         11                PAINT 
	    Sigma_yz           0.0000         11                PAINT 
	    Sigma_zz           0.0000         11                PAINT 

	 Minimum stress: 

	 	 	 	 	 	 	 	 	 Min value [MPa] Element ID 	 	 Material 
	   Sigma_xx           0.0000         11                PAINT 
	   Sigma_yy           0.0000         11                PAINT 
	   Sigma_xy           0.0000         11                PAINT 
	   Sigma_xz           0.0000         11                PAINT 
	   Sigma_yz           0.0000         11                PAINT 
	   Sigma_zz           0.0000         11                PAINT 

**************************************************************************************************************************** 
	 Element:   Material        sigma_xx [Mpa]  sigma_yy [Mpa]  sigma_xy [Mpa]  sigma_xz [Mpa]  sigma_yz [Mpa]  sigma_zz [Mpa]  
        11           PAINT          0.0000          0.0000          0.0000          0.0000          0.0000          0.0000
        12           PAINT          0.0000          0.0000          0.0000          0.0000          0.0000          0.0000
        13           PAINT          0.0000          0.0000          0.0000          0.0000          0.0000          0.0000
        14           PAINT          0.0000          0.0000          0.0000          0.0000          0.0000          0.0000
        15           PAINT          0.0000          0.0000          0.0000          0.0000          0.0000          0.0000
        16           PAINT          0.0000          0.0000          0.0000          0.0000          0.0000          0.0000
        17           PAINT          0.0000          0.0000          0.0000          0.0000          0.0000          0.0000
        18           PAINT          0.0000          0.0000          0.0000          0.0000          0.0000          0.0000
        19           PAINT          0.0000          0.0000          0.0000          0.0000          0.0000          0.0000
        20           PAINT          0.0000          0.0000          0.0000          0.0000          0.0000          0.0000
        21           PAINT          0.0000          0.0000          0.0000          0.0000          0.0000          0.0000
        22           PAINT          0.0000          0.0000          0.0000          0.0000          0.0000          0.0000
        23           PAINT          0.0000          0.0000          0.0000          0.0000          0.0000          0.0000
        24           PAINT          0.0000          0.0000          0.0000          0.0000          0.0000          0.0000
        25           PAINT          0.0000          0.0000          0.0000          0.0000          0.0000          0.0000
        26           PAINT          0.0000          0.0000          0.0000          0.0000          0.0000          0.0000
        27           PAINT          0.0000          0.0000          0.0000          0.0000          0.0000          0.0000
        28           PAINT          0.0000          0.0000          0.0000          0.0000          0.0000          0.0000
        29           PAINT          0.0000          0.0000          0.0000          0.0000          0.0000          0.0000
        30           PAINT          0.0000          0.0000          0.0000          0.0000          0.0000          0.0000
        31           PAINT          0.0000          0.0000          0.0000          0.0000          0.0000          0.0000
        32           PAINT          0.0000          0.0000          0.0000          0.0000          0.0000          0.0000
        33           PAINT          0.0000          0.0000          0.0000          0.0000          0.0000          0.0000
        34           PAINT          0.0000          0.0000          0.0000          0.0000          0.0000          0.0000
        35           PAINT          0.0000          0.0000          0.0000          0.0000          0.0000          0.0000
        36           PAINT          0.0000          0.0000          0.0000          0.0000          0.0000          0.0000
        37           PAINT          0.0000          0.0000          0.0000          0.0000          0.0000          0.0000
        38           PAINT          0.0000          0.0000          0.0000          0.0000          0.0000          0.0000
        39           PAINT          0.0000          0.0000          0.0000          0.0000          0.0000          0.0000
        40           PAINT          0.0000          0.0000          0.0000          0.0000          0.0000          0.0000
        41           PAINT          0.0000          0.0000          0.0000          0.0000          0.0000          0.0000
        42           PAINT          0.0000          0.0000          0.0000          0.0000          0.0000          0.0000
        43           PAINT          0.0000          0.0000          0.0000          0.0000          0.0000          0.0000
        44           PAINT          0.0000          0.0000          0.0000          0.0000          0.0000          0.0000
        45           PAINT          0.0000          0.0000          0.0000          0.0000          0.0000          0.0000
        46           PAINT          0.0000          0.0000          0.0000          0.0000          0.0000          0.0000
        47           PAINT          0.0000          0.0000          0.0000          0.0000          0.0000          0.0000
        48           PAINT          0.0000          0.0000          0.0000          0.0000          0.0000          0.0000
       244        TRIAXIAL          0.0000          0.0000          0.0000          0.0000          0.0000          0.0000
       245        TRIAXIAL          0.0000          0.0000          0.0000          0.0000          0.0000          0.0000
       246        TRIAXIAL          0.0000          0.0000          0.0000          0.0000          0.0000          0.0000
       247        TRIAXIAL          0.0000          0.0000          0.0000          0.0000          0.0000          0.0000
       248        TRIAXIAL          0.0000          0.0000          0.0000          0.0000          0.0000          0.0000
       249        TRIAXIAL          0.0000          0.0000          0.0000          0.0000          0.0000          0.0000
       250        TRIAXIAL          0.0000          0.0000          0.0000          0.0000          0.0000          0.0000
       251        TRIAXIAL          0.0000          0.0000          0.0000          0.0000          0.0000          0.0000
       252        TRIAXIAL          0.0000          0.0000          0.0000          0.0000          0.0000          0.0000
       253        TRIAXIAL          0.0000          0.0000          0.0000          0.0000          0.0000          0.0000
       254        TRIAXIAL          0.0000          0.0000          0.0000          0.0000          0.0000          0.0000
       255        TRIAXIAL          0.0000          0.0000          0.0000          0.0000          0.0000          0.0000
       256        TRIAXIAL          0.0000          0.0000          0.0000          0.0000          0.0000          0.0000
       257        TRIAXIAL          0.0000          0.0000          0.0000          0.0000          0.0000          0.0000
       258        TRIAXIAL          0.0000          0.0000          0.0000          0.0000          0.0000          0.0000
       259        TRIAXIAL          0.0000          0.0000          0.0000          0.0000          0.0000          0.0000
       260        TRIAXIAL          0.0000          0.0000          0.0000          0.0000          0.0000          0.0000
       261        TRIAXIAL          0.0000          0.0000          0.0000          0.0000          0.0000          0.0000
       262        TRIAXIAL          0.0000          0.0000          0.0000          0.0000          0.0000          0.0000
       263        TRIAXIAL          0.0000          0.0000          0.0000          0.0000          0.0000          0.0000
       264        TRIAXIAL          0.0000          0.0000          0.0000          0.0000          0.0000          0.0000
       265        TRIAXIAL          0.0000          0.0000          0.0000          0.0000          0.0000          0.0000
       266        TRIAXIAL          0.0000          0.0000          0.0000          0.0000          0.0000          0.0000
       267        TRIAXIAL          0.0000          0.0000          0.0000          0.0000          0.0000          0.0000
       268        TRIAXIAL          0.0000          0.0000          0.0000          0.0000          0.0000          0.0000
       269        TRIAXIAL          0.0000          0.0000          0.0000          0.0000          0.0000          0.0000
       270        TRIAXIAL          0.0000          0.0000          0.0000          0.0000          0.0000          0.0000
       271        TRIAXIAL          0.0000          0.0000          0.0000          0.0000          0.0000          0.0000
       272        TRIAXIAL          0.0000          0.0000          0.0000          0.0000          0.0000          0.0000
       273        TRIAXIAL          0.0000          0.0000          0.0000          0.0000          0.0000          0.0000
       274        TRIAXIAL          0.0000          0.0000          0.0000          0.0000          0.0000          0.0000
       275        TRIAXIAL          0.0000          0.0000          0.0000          0.0000          0.0000          0.0000
       276        TRIAXIAL          0.0000          0.0000          0.0000          0.0000          0.0000          0.0000
       277        TRIAXIAL          0.0000          0.0000          0.0000          0.0000          0.0000          0.0000
       278        TRIAXIAL          0.0000          0.0000          0.0000          0.0000          0.0000          0.0000
       279        TRIAXIAL          0.0000          0.0000          0.0000          0.0000          0.0000          0.0000
       280        TRIAXIAL          0.0000          0.0000          0.0000          0.0000          0.0000          0.0000
       281        TRIAXIAL          0.0000          0.0000          0.0000          0.0000          0.0000          0.0000
       477           BALSA          0.0000          0.0000          0.0000          0.0000          0.0000          0.0000
       478           BALSA          0.0000          0.0000          0.0000          0.0000          0.0000          0.0000
       479           BALSA          0.0000          0.0000          0.0000          0.0000          0.0000          0.0000
       480           BALSA          0.0000          0.0000          0.0000          0.0000          0.0000          0.0000
       481           BALSA          0.0000          0.0000          0.0000          0.0000          0.0000          0.0000
       482           BALSA          0.0000          0.0000          0.0000          0.0000          0.0000          0.0000
       483           BALSA          0.0000          0.0000          0.0000          0.0000          0.0000          0.0000
       484           BALSA          0.0000          0.0000          0.0000          0.0000          0.0000          0.0000
       485           BALSA          0.0000          0.0000          0.0000          0.0000          0.0000          0.0000
       486           BALSA          0.0000          0.0000          0.0000          0.0000          0.0000          0.0000
       487           BALSA          0.0000          0.0000          0.0000          0.0000          0.0000          0.0000
       488           BALSA          0.0000          0.0000          0.0000          0.0000          0.0000          0.0000
       489           BALSA          0.0000          0.0000          0.0000          0.0000          0.0000          0.0000
       490           BALSA          0.0000          0.0000          0.0000          0.0000          0.0000          0.0000
       491           BALSA          0.0000          0.0000          0.0000          0.0000          0.0000          0.0000
       492           BALSA          0.0000          0.0000          0.0000          0.0000          0.0000          0.0000
       493           BALSA          0.0000          0.0000          0.0000          0.0000          0.0000          0.0000
       494           BALSA          0.0000          0.0000          0.0000          0.0000          0.0000          0.0000
       495           BALSA          0.0000          0.0000          0.0000          0.0000          0.0000          0.0000
       496           BALSA          0.0000          0.0000          0.0000          0.0000          0.0000          0.0000
       497           BALSA          0.0000          0.0000          0.0000          0.0000          0.0000          0.0000
       498           BALSA          0.0000          0.0000          0.0000          0.0000          0.0000          0.0000
       499           BALSA          0.0000          0.0000          0.0000          0.0000          0.0000          0.0000
       500           BALSA          0.0000          0.0000          0.0000          0.0000          0.0000          0.0000
       501           BALSA          0.0000          0.0000          0.0000          0.0000          0.0000          0.0000
       502           BALSA          0.0000          0.0000          0.0000          0.0000          0.0000          0.0000
       503           BALSA          0.0000          0.0000          0.0000          0.0000          0.0000          0.0000
       504           BALSA          0.0000          0.0000          0.0000          0.0000          0.0000          0.0000
       505           BALSA          0.0000          0.0000          0.0000          0.0000          0.0000          0.0000
       506           BALSA          0.0000          0.0000          0.0000          0.0000          0.0000          0.0000
       507           BALSA          0.0000          0.0000          0.0000          0.0000          0.0000          0.0000
       508           BALSA          0.0000          0.0000          0.0000          0.0000          0.0000          0.0000
       509           BALSA          0.0000          0.0000          0.0000          0.0000          0.0000          0.0000
       510           BALSA          0.0000          0.0000          0.0000          0.0000          0.0000          0.0000
       511           BALSA          0.0000          0.0000          0.0000          0.0000          0.0000          0.0000
       512           BALSA          0.0000          0.0000          0.0000          0.0000          0.0000          0.0000
       513           BALSA          0.0000          0.0000          0.0000          0.0000          0.0000          0.0000
       514           BALSA          0.0000          0.0000          0.0000          0.0000          0.0000          0.0000
       710        TRIAXIAL          0.0000          0.0000          0.0000          0.0000          0.0000          0.0000
       711        TRIAXIAL          0.0000          0.0000          0.0000          0.0000          0.0000          0.0000
       712        TRIAXIAL          0.0000          0.0000          0.0000          0.0000          0.0000          0.0000
       713        TRIAXIAL          0.0000          0.0000          0.0000          0.0000          0.0000          0.0000
       714        TRIAXIAL          0.0000          0.0000          0.0000          0.0000          0.0000          0.0000
       715        TRIAXIAL          0.0000          0.0000          0.0000          0.0000          0.0000          0.0000
       716        TRIAXIAL          0.0000          0.0000          0.0000          0.0000          0.0000          0.0000
       717        TRIAXIAL          0.0000          0.0000          0.0000          0.0000          0.0000          0.0000
       718        TRIAXIAL          0.0000          0.0000          0.0000          0.0000          0.0000          0.0000
       719        TRIAXIAL          0.0000          0.0000          0.0000          0.0000          0.0000          0.0000
       720        TRIAXIAL          0.0000          0.0000          0.0000          0.0000          0.0000          0.0000
       721        TRIAXIAL          0.0000          0.0000          0.0000          0.0000          0.0000          0.0000
       722        TRIAXIAL          0.0000          0.0000          0.0000          0.0000          0.0000          0.0000
       723        TRIAXIAL          0.0000          0.0000          0.0000          0.0000          0.0000          0.0000
       724        TRIAXIAL          0.0000          0.0000          0.0000          0.0000          0.0000          0.0000
       725        TRIAXIAL          0.0000          0.0000          0.0000          0.0000          0.0000          0.0000
       726        TRIAXIAL          0.0000          0.0000          0.0000          0.0000          0.0000          0.0000
       727        TRIAXIAL          0.0000          0.0000          0.0000          0.0000          0.0000          0.0000
       728        TRIAXIAL          0.0000          0.0000          0.0000          0.0000          0.0000          0.0000
       729        TRIAXIAL          0.0000          0.0000          0.0000          0.0000          0.0000          0.0000
       730        TRIAXIAL          0.0000          0.0000          0.0000          0.0000          0.0000          0.0000
       731        TRIAXIAL          0.0000          0.0000          0.0000          0.0000          0.0000          0.0000
       732        TRIAXIAL          0.0000          0.0000          0.0000          0.0000          0.0000          0.0000
       733        TRIAXIAL          0.0000          0.0000          0.0000          0.0000          0.0000          0.0000
       734        TRIAXIAL          0.0000          0.0000          0.0000          0.0000          0.0000          0.0000
       735        TRIAXIAL          0.0000          0.0000          0.0000          0.0000          0.0000          0.0000
       736        TRIAXIAL          0.0000          0.0000          0.0000          0.0000          0.0000          0.0000
       737        TRIAXIAL          0.0000          0.0000          0.0000          0.0000          0.0000          0.0000
       738        TRIAXIAL          0.0000          0.0000          0.0000          0.0000          0.0000          0.0000
       739        TRIAXIAL          0.0000          0.0000          0.0000          0.0000          0.0000          0.0000
       740        TRIAXIAL          0.0000          0.0000          0.0000          0.0000          0.0000          0.0000
       741        TRIAXIAL          0.0000          0.0000          0.0000          0.0000          0.0000          0.0000
       742        TRIAXIAL          0.0000          0.0000          0.0000          0.0000          0.0000          0.0000
       743        TRIAXIAL          0.0000          0.0000          0.0000          0.0000          0.0000          0.0000
       744        TRIAXIAL          0.0000          0.0000          0.0000          0.0000          0.0000          0.0000
       745        TRIAXIAL          0.0000          0.0000          0.0000          0.0000          0.0000          0.0000
       746        TRIAXIAL          0.0000          0.0000          0.0000          0.0000          0.0000          0.0000
       747        TRIAXIAL          0.0000          0.0000          0.0000          0.0000          0.0000          0.0000
**************************************************************************************************************************** 
ELEMENT_3: 
**************************************************************************************************************************** 
	 Maximum stress: 

	 	 	 	 	 	 	 	 	 Max value [MPa] Element ID 	 	 Material 
	    Sigma_xx           0.0000         49                PAINT 
	    Sigma_yy           0.0000         49                PAINT 
	    Sigma_xy           0.0000         49                PAINT 
	    Sigma_xz           0.0000         49                PAINT 
	    Sigma_yz           0.0000         49                PAINT 
	    Sigma_zz           0.0000         49                PAINT 

	 Minimum stress: 

	 	 	 	 	 	 	 	 	 Min value [MPa] Element ID 	 	 Material 
	   Sigma_xx           0.0000         49                PAINT 
	   Sigma_yy           0.0000         49                PAINT 
	   Sigma_xy           0.0000         49                PAINT 
	   Sigma_xz           0.0000         49                PAINT 
	   Sigma_yz           0.0000         49                PAINT 
	   Sigma_zz           0.0000         49                PAINT 

**************************************************************************************************************************** 
	 Element:   Material        sigma_xx [Mpa]  sigma_yy [Mpa]  sigma_xy [Mpa]  sigma_xz [Mpa]  sigma_yz [Mpa]  sigma_zz [Mpa]  
        49           PAINT          0.0000          0.0000          0.0000          0.0000          0.0000          0.0000
        50           PAINT          0.0000          0.0000          0.0000          0.0000          0.0000          0.0000
        51           PAINT          0.0000          0.0000          0.0000          0.0000          0.0000          0.0000
        52           PAINT          0.0000          0.0000          0.0000          0.0000          0.0000          0.0000
        53           PAINT          0.0000          0.0000          0.0000          0.0000          0.0000          0.0000
        54           PAINT          0.0000          0.0000          0.0000          0.0000          0.0000          0.0000
        55           PAINT          0.0000          0.0000          0.0000          0.0000          0.0000          0.0000
        56           PAINT          0.0000          0.0000          0.0000          0.0000          0.0000          0.0000
        57           PAINT          0.0000          0.0000          0.0000          0.0000          0.0000          0.0000
        58           PAINT          0.0000          0.0000          0.0000          0.0000          0.0000          0.0000
        59           PAINT          0.0000          0.0000          0.0000          0.0000          0.0000          0.0000
        60           PAINT          0.0000          0.0000          0.0000          0.0000          0.0000          0.0000
        61           PAINT          0.0000          0.0000          0.0000          0.0000          0.0000          0.0000
        62           PAINT          0.0000          0.0000          0.0000          0.0000          0.0000          0.0000
        63           PAINT          0.0000          0.0000          0.0000          0.0000          0.0000          0.0000
        64           PAINT          0.0000          0.0000          0.0000          0.0000          0.0000          0.0000
        65           PAINT          0.0000          0.0000          0.0000          0.0000          0.0000          0.0000
        66           PAINT          0.0000          0.0000          0.0000          0.0000          0.0000          0.0000
        67           PAINT          0.0000          0.0000          0.0000          0.0000          0.0000          0.0000
        68           PAINT          0.0000          0.0000          0.0000          0.0000          0.0000          0.0000
        69           PAINT          0.0000          0.0000          0.0000          0.0000          0.0000          0.0000
        70           PAINT          0.0000          0.0000          0.0000          0.0000          0.0000          0.0000
        71           PAINT          0.0000          0.0000          0.0000          0.0000          0.0000          0.0000
        72           PAINT          0.0000          0.0000          0.0000          0.0000          0.0000          0.0000
        73           PAINT          0.0000          0.0000          0.0000          0.0000          0.0000          0.0000
        74           PAINT          0.0000          0.0000          0.0000          0.0000          0.0000          0.0000
        75           PAINT          0.0000          0.0000          0.0000          0.0000          0.0000          0.0000
        76           PAINT          0.0000          0.0000          0.0000          0.0000          0.0000          0.0000
       282        TRIAXIAL          0.0000          0.0000          0.0000          0.0000          0.0000          0.0000
       283        TRIAXIAL          0.0000          0.0000          0.0000          0.0000          0.0000          0.0000
       284        TRIAXIAL          0.0000          0.0000          0.0000          0.0000          0.0000          0.0000
       285        TRIAXIAL          0.0000          0.0000          0.0000          0.0000          0.0000          0.0000
       286        TRIAXIAL          0.0000          0.0000          0.0000          0.0000          0.0000          0.0000
       287        TRIAXIAL          0.0000          0.0000          0.0000          0.0000          0.0000          0.0000
       288        TRIAXIAL          0.0000          0.0000          0.0000          0.0000          0.0000          0.0000
       289        TRIAXIAL          0.0000          0.0000          0.0000          0.0000          0.0000          0.0000
       290        TRIAXIAL          0.0000          0.0000          0.0000          0.0000          0.0000          0.0000
       291        TRIAXIAL          0.0000          0.0000          0.0000          0.0000          0.0000          0.0000
       292        TRIAXIAL          0.0000          0.0000          0.0000          0.0000          0.0000          0.0000
       293        TRIAXIAL          0.0000          0.0000          0.0000          0.0000          0.0000          0.0000
       294        TRIAXIAL          0.0000          0.0000          0.0000          0.0000          0.0000          0.0000
       295        TRIAXIAL          0.0000          0.0000          0.0000          0.0000          0.0000          0.0000
       296        TRIAXIAL          0.0000          0.0000          0.0000          0.0000          0.0000          0.0000
       297        TRIAXIAL          0.0000          0.0000          0.0000          0.0000          0.0000          0.0000
       298        TRIAXIAL          0.0000          0.0000          0.0000          0.0000          0.0000          0.0000
       299        TRIAXIAL          0.0000          0.0000          0.0000          0.0000          0.0000          0.0000
       300        TRIAXIAL          0.0000          0.0000          0.0000          0.0000          0.0000          0.0000
       301        TRIAXIAL          0.0000          0.0000          0.0000          0.0000          0.0000          0.0000
       302        TRIAXIAL          0.0000          0.0000          0.0000          0.0000          0.0000          0.0000
       303        TRIAXIAL          0.0000          0.0000          0.0000          0.0000          0.0000          0.0000
       304        TRIAXIAL          0.0000          0.0000          0.0000          0.0000          0.0000          0.0000
       305        TRIAXIAL          0.0000          0.0000          0.0000          0.0000          0.0000          0.0000
       306        TRIAXIAL          0.0000          0.0000          0.0000          0.0000          0.0000          0.0000
       307        TRIAXIAL          0.0000          0.0000          0.0000          0.0000          0.0000          0.0000
       308        TRIAXIAL          0.0000          0.0000          0.0000          0.0000          0.0000          0.0000
       309        TRIAXIAL          0.0000          0.0000          0.0000          0.0000          0.0000          0.0000
       515  UNIDIRECTIONAL          0.0000          0.0000          0.0000          0.0000          0.0000          0.0000
       516  UNIDIRECTIONAL          0.0000          0.0000          0.0000          0.0000          0.0000          0.0000
       517  UNIDIRECTIONAL          0.0000          0.0000          0.0000          0.0000          0.0000          0.0000
       518  UNIDIRECTIONAL          0.0000          0.0000          0.0000          0.0000          0.0000          0.0000
       519  UNIDIRECTIONAL          0.0000          0.0000          0.0000          0.0000          0.0000          0.0000
       520  UNIDIRECTIONAL          0.0000          0.0000          0.0000          0.0000          0.0000          0.0000
       521  UNIDIRECTIONAL          0.0000          0.0000          0.0000          0.0000          0.0000          0.0000
       522  UNIDIRECTIONAL          0.0000          0.0000          0.0000          0.0000          0.0000          0.0000
       523  UNIDIRECTIONAL          0.0000          0.0000          0.0000          0.0000          0.0000          0.0000
       524  UNIDIRECTIONAL          0.0000          0.0000          0.0000          0.0000          0.0000          0.0000
       525  UNIDIRECTIONAL          0.0000          0.0000          0.0000          0.0000          0.0000          0.0000
       526  UNIDIRECTIONAL          0.0000          0.0000          0.0000          0.0000          0.0000          0.0000
       527  UNIDIRECTIONAL          0.0000          0.0000          0.0000          0.0000          0.0000          0.0000
       528  UNIDIRECTIONAL          0.0000          0.0000          0.0000          0.0000          0.0000          0.0000
       529  UNIDIRECTIONAL          0.0000          0.0000          0.0000          0.0000          0.0000          0.0000
       530  UNIDIRECTIONAL          0.0000          0.0000          0.0000          0.0000          0.0000          0.0000
       531  UNIDIRECTIONAL          0.0000          0.0000          0.0000          0.0000          0.0000          0.0000
       532  UNIDIRECTIONAL          0.0000          0.0000          0.0000          0.0000          0.0000          0.0000
       533  UNIDIRECTIONAL          0.0000          0.0000          0.0000          0.0000          0.0000          0.0000
       534  UNIDIRECTIONAL          0.0000          0.0000          0.0000          0.0000          0.0000          0.0000
       535  UNIDIRECTIONAL          0.0000          0.0000          0.0000          0.0000          0.0000          0.0000
       536  UNIDIRECTIONAL          0.0000          0.0000          0.0000          0.0000          0.0000          0.0000
       537  UNIDIRECTIONAL          0.0000          0.0000          0.0000          0.0000          0.0000          0.0000
       538  UNIDIRECTIONAL          0.0000          0.0000          0.0000          0.0000          0.0000          0.0000
       539  UNIDIRECTIONAL          0.0000          0.0000          0.0000          0.0000          0.0000          0.0000
       540  UNIDIRECTIONAL          0.0000          0.0000          0.0000          0.0000          0.0000          0.0000
       541  UNIDIRECTIONAL          0.0000          0.0000          0.0000          0.0000          0.0000          0.0000
       542  UNIDIRECTIONAL          0.0000          0.0000          0.0000          0.0000          0.0000          0.0000
       748        TRIAXIAL          0.0000          0.0000          0.0000          0.0000          0.0000          0.0000
       749        TRIAXIAL          0.0000          0.0000          0.0000          0.0000          0.0000          0.0000
       750        TRIAXIAL          0.0000          0.0000          0.0000          0.0000          0.0000          0.0000
       751        TRIAXIAL          0.0000          0.0000          0.0000          0.0000          0.0000          0.0000
       752        TRIAXIAL          0.0000          0.0000          0.0000          0.0000          0.0000          0.0000
       753        TRIAXIAL          0.0000          0.0000          0.0000          0.0000          0.0000          0.0000
       754        TRIAXIAL          0.0000          0.0000          0.0000          0.0000          0.0000          0.0000
       755        TRIAXIAL          0.0000          0.0000          0.0000          0.0000          0.0000          0.0000
       756        TRIAXIAL          0.0000          0.0000          0.0000          0.0000          0.0000          0.0000
       757        TRIAXIAL          0.0000          0.0000          0.0000          0.0000          0.0000          0.0000
       758        TRIAXIAL          0.0000          0.0000          0.0000          0.0000          0.0000          0.0000
       759        TRIAXIAL          0.0000          0.0000          0.0000          0.0000          0.0000          0.0000
       760        TRIAXIAL          0.0000          0.0000          0.0000          0.0000          0.0000          0.0000
       761        TRIAXIAL          0.0000          0.0000          0.0000          0.0000          0.0000          0.0000
       762        TRIAXIAL          0.0000          0.0000          0.0000          0.0000          0.0000          0.0000
       763        TRIAXIAL          0.0000          0.0000          0.0000          0.0000          0.0000          0.0000
       764        TRIAXIAL          0.0000          0.0000          0.0000          0.0000          0.0000          0.0000
       765        TRIAXIAL          0.0000          0.0000          0.0000          0.0000          0.0000          0.0000
       766        TRIAXIAL          0.0000          0.0000          0.0000          0.0000          0.0000          0.0000
       767        TRIAXIAL          0.0000          0.0000          0.0000          0.0000          0.0000          0.0000
       768        TRIAXIAL          0.0000          0.0000          0.0000          0.0000          0.0000          0.0000
       769        TRIAXIAL          0.0000          0.0000          0.0000          0.0000          0.0000          0.0000
       770        TRIAXIAL          0.0000          0.0000          0.0000          0.0000          0.0000          0.0000
       771        TRIAXIAL          0.0000          0.0000          0.0000          0.0000          0.0000          0.0000
       772        TRIAXIAL          0.0000          0.0000          0.0000          0.0000          0.0000          0.0000
       773        TRIAXIAL          0.0000          0.0000          0.0000          0.0000          0.0000          0.0000
       774        TRIAXIAL          0.0000          0.0000          0.0000          0.0000          0.0000          0.0000
       775        TRIAXIAL          0.0000          0.0000          0.0000          0.0000          0.0000          0.0000
**************************************************************************************************************************** 
ELEMENT_4: 
**************************************************************************************************************************** 
	 Maximum stress: 

	 	 	 	 	 	 	 	 	 Max value [MPa] Element ID 	 	 Material 
	    Sigma_xx           0.0000         77                PAINT 
	    Sigma_yy           0.0000         77                PAINT 
	    Sigma_xy           0.0000         77                PAINT 
	    Sigma_xz           0.0000         77                PAINT 
	    Sigma_yz           0.0000         77                PAINT 
	    Sigma_zz           0.0000         77                PAINT 

	 Minimum stress: 

	 	 	 	 	 	 	 	 	 Min value [MPa] Element ID 	 	 Material 
	   Sigma_xx           0.0000         77                PAINT 
	   Sigma_yy           0.0000         77                PAINT 
	   Sigma_xy           0.0000         77                PAINT 
	   Sigma_xz           0.0000         77                PAINT 
	   Sigma_yz           0.0000         77                PAINT 
	   Sigma_zz           0.0000         77                PAINT 

**************************************************************************************************************************** 
	 Element:   Material        sigma_xx [Mpa]  sigma_yy [Mpa]  sigma_xy [Mpa]  sigma_xz [Mpa]  sigma_yz [Mpa]  sigma_zz [Mpa]  
        77           PAINT          0.0000          0.0000          0.0000          0.0000          0.0000          0.0000
        78           PAINT          0.0000          0.0000          0.0000          0.0000          0.0000          0.0000
        79           PAINT          0.0000          0.0000          0.0000          0.0000          0.0000          0.0000
        80           PAINT          0.0000          0.0000          0.0000          0.0000          0.0000          0.0000
        81           PAINT          0.0000          0.0000          0.0000          0.0000          0.0000          0.0000
        82           PAINT          0.0000          0.0000          0.0000          0.0000          0.0000          0.0000
        83           PAINT          0.0000          0.0000          0.0000          0.0000          0.0000          0.0000
        84           PAINT          0.0000          0.0000          0.0000          0.0000          0.0000          0.0000
        85           PAINT          0.0000          0.0000          0.0000          0.0000          0.0000          0.0000
        86           PAINT          0.0000          0.0000          0.0000          0.0000          0.0000          0.0000
        87           PAINT          0.0000          0.0000          0.0000          0.0000          0.0000          0.0000
        88           PAINT          0.0000          0.0000          0.0000          0.0000          0.0000          0.0000
        89           PAINT          0.0000          0.0000          0.0000          0.0000          0.0000          0.0000
       310        TRIAXIAL          0.0000          0.0000          0.0000          0.0000          0.0000          0.0000
       311        TRIAXIAL          0.0000          0.0000          0.0000          0.0000          0.0000          0.0000
       312        TRIAXIAL          0.0000          0.0000          0.0000          0.0000          0.0000          0.0000
       313        TRIAXIAL          0.0000          0.0000          0.0000          0.0000          0.0000          0.0000
       314        TRIAXIAL          0.0000          0.0000          0.0000          0.0000          0.0000          0.0000
       315        TRIAXIAL          0.0000          0.0000          0.0000          0.0000          0.0000          0.0000
       316        TRIAXIAL          0.0000          0.0000          0.0000          0.0000          0.0000          0.0000
       317        TRIAXIAL          0.0000          0.0000          0.0000          0.0000          0.0000          0.0000
       318        TRIAXIAL          0.0000          0.0000          0.0000          0.0000          0.0000          0.0000
       319        TRIAXIAL          0.0000          0.0000          0.0000          0.0000          0.0000          0.0000
       320        TRIAXIAL          0.0000          0.0000          0.0000          0.0000          0.0000          0.0000
       321        TRIAXIAL          0.0000          0.0000          0.0000          0.0000          0.0000          0.0000
       322        TRIAXIAL          0.0000          0.0000          0.0000          0.0000          0.0000          0.0000
       543           BALSA          0.0000          0.0000          0.0000          0.0000          0.0000          0.0000
       544           BALSA          0.0000          0.0000          0.0000          0.0000          0.0000          0.0000
       545           BALSA          0.0000          0.0000          0.0000          0.0000          0.0000          0.0000
       546           BALSA          0.0000          0.0000          0.0000          0.0000          0.0000          0.0000
       547           BALSA          0.0000          0.0000          0.0000          0.0000          0.0000          0.0000
       548           BALSA          0.0000          0.0000          0.0000          0.0000          0.0000          0.0000
       549           BALSA          0.0000          0.0000          0.0000          0.0000          0.0000          0.0000
       550           BALSA          0.0000          0.0000          0.0000          0.0000          0.0000          0.0000
       551           BALSA          0.0000          0.0000          0.0000          0.0000          0.0000          0.0000
       552           BALSA          0.0000          0.0000          0.0000          0.0000          0.0000          0.0000
       553           BALSA          0.0000          0.0000          0.0000          0.0000          0.0000          0.0000
       554           BALSA          0.0000          0.0000          0.0000          0.0000          0.0000          0.0000
       555           BALSA          0.0000          0.0000          0.0000          0.0000          0.0000          0.0000
       776        TRIAXIAL          0.0000          0.0000          0.0000          0.0000          0.0000          0.0000
       777        TRIAXIAL          0.0000          0.0000          0.0000          0.0000          0.0000          0.0000
       778        TRIAXIAL          0.0000          0.0000          0.0000          0.0000          0.0000          0.0000
       779        TRIAXIAL          0.0000          0.0000          0.0000          0.0000          0.0000          0.0000
       780        TRIAXIAL          0.0000          0.0000          0.0000          0.0000          0.0000          0.0000
       781        TRIAXIAL          0.0000          0.0000          0.0000          0.0000          0.0000          0.0000
       782        TRIAXIAL          0.0000          0.0000          0.0000          0.0000          0.0000          0.0000
       783        TRIAXIAL          0.0000          0.0000          0.0000          0.0000          0.0000          0.0000
       784        TRIAXIAL          0.0000          0.0000          0.0000          0.0000          0.0000          0.0000
       785        TRIAXIAL          0.0000          0.0000          0.0000          0.0000          0.0000          0.0000
       786        TRIAXIAL          0.0000          0.0000          0.0000          0.0000          0.0000          0.0000
       787        TRIAXIAL          0.0000          0.0000          0.0000          0.0000          0.0000          0.0000
       788        TRIAXIAL          0.0000          0.0000          0.0000          0.0000          0.0000          0.0000
**************************************************************************************************************************** 
ELEMENT_5: 
**************************************************************************************************************************** 
	 Maximum stress: 

	 	 	 	 	 	 	 	 	 Max value [MPa] Element ID 	 	 Material 
	    Sigma_xx           0.0000         90                PAINT 
	    Sigma_yy           0.0000         90                PAINT 
	    Sigma_xy           0.0000         90                PAINT 
	    Sigma_xz           0.0000         90                PAINT 
	    Sigma_yz           0.0000         90                PAINT 
	    Sigma_zz           0.0000         90                PAINT 

	 Minimum stress: 

	 	 	 	 	 	 	 	 	 Min value [MPa] Element ID 	 	 Material 
	   Sigma_xx           0.0000         90                PAINT 
	   Sigma_yy           0.0000         90                PAINT 
	   Sigma_xy           0.0000         90                PAINT 
	   Sigma_xz           0.0000         90                PAINT 
	   Sigma_yz           0.0000         90                PAINT 
	   Sigma_zz           0.0000         90                PAINT 

**************************************************************************************************************************** 
	 Element:   Material        sigma_xx [Mpa]  sigma_yy [Mpa]  sigma_xy [Mpa]  sigma_xz [Mpa]  sigma_yz [Mpa]  sigma_zz [Mpa]  
        90           PAINT          0.0000          0.0000          0.0000          0.0000          0.0000          0.0000
        91           PAINT          0.0000          0.0000          0.0000          0.0000          0.0000          0.0000
        92           PAINT          0.0000          0.0000          0.0000          0.0000          0.0000          0.0000
        93           PAINT          0.0000          0.0000          0.0000          0.0000          0.0000          0.0000
        94           PAINT          0.0000          0.0000          0.0000          0.0000          0.0000          0.0000
        95           PAINT          0.0000          0.0000          0.0000          0.0000          0.0000          0.0000
        96           PAINT          0.0000          0.0000          0.0000          0.0000          0.0000          0.0000
        97           PAINT          0.0000          0.0000          0.0000          0.0000          0.0000          0.0000
        98           PAINT          0.0000          0.0000          0.0000          0.0000          0.0000          0.0000
        99           PAINT          0.0000          0.0000          0.0000          0.0000          0.0000          0.0000
       323        TRIAXIAL          0.0000          0.0000          0.0000          0.0000          0.0000          0.0000
       324        TRIAXIAL          0.0000          0.0000          0.0000          0.0000          0.0000          0.0000
       325        TRIAXIAL          0.0000          0.0000          0.0000          0.0000          0.0000          0.0000
       326        TRIAXIAL          0.0000          0.0000          0.0000          0.0000          0.0000          0.0000
       327        TRIAXIAL          0.0000          0.0000          0.0000          0.0000          0.0000          0.0000
       328        TRIAXIAL          0.0000          0.0000          0.0000          0.0000          0.0000          0.0000
       329        TRIAXIAL          0.0000          0.0000          0.0000          0.0000          0.0000          0.0000
       330        TRIAXIAL          0.0000          0.0000          0.0000          0.0000          0.0000          0.0000
       331        TRIAXIAL          0.0000          0.0000          0.0000          0.0000          0.0000          0.0000
       332        TRIAXIAL          0.0000          0.0000          0.0000          0.0000          0.0000          0.0000
       556   REINFORCEMENT          0.0000          0.0000          0.0000          0.0000          0.0000          0.0000
       557   REINFORCEMENT          0.0000          0.0000          0.0000          0.0000          0.0000          0.0000
       558   REINFORCEMENT          0.0000          0.0000          0.0000          0.0000          0.0000          0.0000
       559   REINFORCEMENT          0.0000          0.0000          0.0000          0.0000          0.0000          0.0000
       560   REINFORCEMENT          0.0000          0.0000          0.0000          0.0000          0.0000          0.0000
       561   REINFORCEMENT          0.0000          0.0000          0.0000          0.0000          0.0000          0.0000
       562   REINFORCEMENT          0.0000          0.0000          0.0000          0.0000          0.0000          0.0000
       563   REINFORCEMENT          0.0000          0.0000          0.0000          0.0000          0.0000          0.0000
       564   REINFORCEMENT          0.0000          0.0000          0.0000          0.0000          0.0000          0.0000
       565   REINFORCEMENT          0.0000          0.0000          0.0000          0.0000          0.0000          0.0000
       789        TRIAXIAL          0.0000          0.0000          0.0000          0.0000          0.0000          0.0000
       790        TRIAXIAL          0.0000          0.0000          0.0000          0.0000          0.0000          0.0000
       791        TRIAXIAL          0.0000          0.0000          0.0000          0.0000          0.0000          0.0000
       792        TRIAXIAL          0.0000          0.0000          0.0000          0.0000          0.0000          0.0000
       793        TRIAXIAL          0.0000          0.0000          0.0000          0.0000          0.0000          0.0000
       794        TRIAXIAL          0.0000          0.0000          0.0000          0.0000          0.0000          0.0000
       795        TRIAXIAL          0.0000          0.0000          0.0000          0.0000          0.0000          0.0000
       796        TRIAXIAL          0.0000          0.0000          0.0000          0.0000          0.0000          0.0000
       797        TRIAXIAL          0.0000          0.0000          0.0000          0.0000          0.0000          0.0000
       798        TRIAXIAL          0.0000          0.0000          0.0000          0.0000          0.0000          0.0000
**************************************************************************************************************************** 
ELEMENT_6: 
**************************************************************************************************************************** 
	 Maximum stress: 

	 	 	 	 	 	 	 	 	 Max value [MPa] Element ID 	 	 Material 
	    Sigma_xx           0.0000        100                PAINT 
	    Sigma_yy           0.0000        100                PAINT 
	    Sigma_xy           0.0000        100                PAINT 
	    Sigma_xz           0.0000        100                PAINT 
	    Sigma_yz           0.0000        100                PAINT 
	    Sigma_zz           0.0000        100                PAINT 

	 Minimum stress: 

	 	 	 	 	 	 	 	 	 Min value [MPa] Element ID 	 	 Material 
	   Sigma_xx           0.0000        100                PAINT 
	   Sigma_yy           0.0000        100                PAINT 
	   Sigma_xy           0.0000        100                PAINT 
	   Sigma_xz           0.0000        100                PAINT 
	   Sigma_yz           0.0000        100                PAINT 
	   Sigma_zz           0.0000        100                PAINT 

**************************************************************************************************************************** 
	 Element:   Material        sigma_xx [Mpa]  sigma_yy [Mpa]  sigma_xy [Mpa]  sigma_xz [Mpa]  sigma_yz [Mpa]  sigma_zz [Mpa]  
       100           PAINT          0.0000          0.0000          0.0000          0.0000          0.0000          0.0000
       101           PAINT          0.0000          0.0000          0.0000          0.0000          0.0000          0.0000
       102           PAINT          0.0000          0.0000          0.0000          0.0000          0.0000          0.0000
       103           PAINT          0.0000          0.0000          0.0000          0.0000          0.0000          0.0000
       104           PAINT          0.0000          0.0000          0.0000          0.0000          0.0000          0.0000
       105           PAINT          0.0000          0.0000          0.0000          0.0000          0.0000          0.0000
       106           PAINT          0.0000          0.0000          0.0000          0.0000          0.0000          0.0000
       107           PAINT          0.0000          0.0000          0.0000          0.0000          0.0000          0.0000
       108           PAINT          0.0000          0.0000          0.0000          0.0000          0.0000          0.0000
       109           PAINT          0.0000          0.0000          0.0000          0.0000          0.0000          0.0000
       333        TRIAXIAL          0.0000          0.0000          0.0000          0.0000          0.0000          0.0000
       334        TRIAXIAL          0.0000          0.0000          0.0000          0.0000          0.0000          0.0000
       335        TRIAXIAL          0.0000          0.0000          0.0000          0.0000          0.0000          0.0000
       336        TRIAXIAL          0.0000          0.0000          0.0000          0.0000          0.0000          0.0000
       337        TRIAXIAL          0.0000          0.0000          0.0000          0.0000          0.0000          0.0000
       338        TRIAXIAL          0.0000          0.0000          0.0000          0.0000          0.0000          0.0000
       339        TRIAXIAL          0.0000          0.0000          0.0000          0.0000          0.0000          0.0000
       340        TRIAXIAL          0.0000          0.0000          0.0000          0.0000          0.0000          0.0000
       341        TRIAXIAL          0.0000          0.0000          0.0000          0.0000          0.0000          0.0000
       342        TRIAXIAL          0.0000          0.0000          0.0000          0.0000          0.0000          0.0000
       566   REINFORCEMENT          0.0000          0.0000          0.0000          0.0000          0.0000          0.0000
       567   REINFORCEMENT          0.0000          0.0000          0.0000          0.0000          0.0000          0.0000
       568   REINFORCEMENT          0.0000          0.0000          0.0000          0.0000          0.0000          0.0000
       569   REINFORCEMENT          0.0000          0.0000          0.0000          0.0000          0.0000          0.0000
       570   REINFORCEMENT          0.0000          0.0000          0.0000          0.0000          0.0000          0.0000
       571   REINFORCEMENT          0.0000          0.0000          0.0000          0.0000          0.0000          0.0000
       572   REINFORCEMENT          0.0000          0.0000          0.0000          0.0000          0.0000          0.0000
       573   REINFORCEMENT          0.0000          0.0000          0.0000          0.0000          0.0000          0.0000
       574   REINFORCEMENT          0.0000          0.0000          0.0000          0.0000          0.0000          0.0000
       575   REINFORCEMENT          0.0000          0.0000          0.0000          0.0000          0.0000          0.0000
       799        TRIAXIAL          0.0000          0.0000          0.0000          0.0000          0.0000          0.0000
       800        TRIAXIAL          0.0000          0.0000          0.0000          0.0000          0.0000          0.0000
       801        TRIAXIAL          0.0000          0.0000          0.0000          0.0000          0.0000          0.0000
       802        TRIAXIAL          0.0000          0.0000          0.0000          0.0000          0.0000          0.0000
       803        TRIAXIAL          0.0000          0.0000          0.0000          0.0000          0.0000          0.0000
       804        TRIAXIAL          0.0000          0.0000          0.0000          0.0000          0.0000          0.0000
       805        TRIAXIAL          0.0000          0.0000          0.0000          0.0000          0.0000          0.0000
       806        TRIAXIAL          0.0000          0.0000          0.0000          0.0000          0.0000          0.0000
       807        TRIAXIAL          0.0000          0.0000          0.0000          0.0000          0.0000          0.0000
       808        TRIAXIAL          0.0000          0.0000          0.0000          0.0000          0.0000          0.0000
**************************************************************************************************************************** 
ELEMENT_7: 
**************************************************************************************************************************** 
	 Maximum stress: 

	 	 	 	 	 	 	 	 	 Max value [MPa] Element ID 	 	 Material 
	    Sigma_xx           0.0000        110                PAINT 
	    Sigma_yy           0.0000        110                PAINT 
	    Sigma_xy           0.0000        110                PAINT 
	    Sigma_xz           0.0000        110                PAINT 
	    Sigma_yz           0.0000        110                PAINT 
	    Sigma_zz           0.0000        110                PAINT 

	 Minimum stress: 

	 	 	 	 	 	 	 	 	 Min value [MPa] Element ID 	 	 Material 
	   Sigma_xx           0.0000        110                PAINT 
	   Sigma_yy           0.0000        110                PAINT 
	   Sigma_xy           0.0000        110                PAINT 
	   Sigma_xz           0.0000        110                PAINT 
	   Sigma_yz           0.0000        110                PAINT 
	   Sigma_zz           0.0000        110                PAINT 

**************************************************************************************************************************** 
	 Element:   Material        sigma_xx [Mpa]  sigma_yy [Mpa]  sigma_xy [Mpa]  sigma_xz [Mpa]  sigma_yz [Mpa]  sigma_zz [Mpa]  
       110           PAINT          0.0000          0.0000          0.0000          0.0000          0.0000          0.0000
       111           PAINT          0.0000          0.0000          0.0000          0.0000          0.0000          0.0000
       112           PAINT          0.0000          0.0000          0.0000          0.0000          0.0000          0.0000
       113           PAINT          0.0000          0.0000          0.0000          0.0000          0.0000          0.0000
       114           PAINT          0.0000          0.0000          0.0000          0.0000          0.0000          0.0000
       115           PAINT          0.0000          0.0000          0.0000          0.0000          0.0000          0.0000
       116           PAINT          0.0000          0.0000          0.0000          0.0000          0.0000          0.0000
       117           PAINT          0.0000          0.0000          0.0000          0.0000          0.0000          0.0000
       118           PAINT          0.0000          0.0000          0.0000          0.0000          0.0000          0.0000
       119           PAINT          0.0000          0.0000          0.0000          0.0000          0.0000          0.0000
       120           PAINT          0.0000          0.0000          0.0000          0.0000          0.0000          0.0000
       121           PAINT          0.0000          0.0000          0.0000          0.0000          0.0000          0.0000
       122           PAINT          0.0000          0.0000          0.0000          0.0000          0.0000          0.0000
       343        TRIAXIAL          0.0000          0.0000          0.0000          0.0000          0.0000          0.0000
       344        TRIAXIAL          0.0000          0.0000          0.0000          0.0000          0.0000          0.0000
       345        TRIAXIAL          0.0000          0.0000          0.0000          0.0000          0.0000          0.0000
       346        TRIAXIAL          0.0000          0.0000          0.0000          0.0000          0.0000          0.0000
       347        TRIAXIAL          0.0000          0.0000          0.0000          0.0000          0.0000          0.0000
       348        TRIAXIAL          0.0000          0.0000          0.0000          0.0000          0.0000          0.0000
       349        TRIAXIAL          0.0000          0.0000          0.0000          0.0000          0.0000          0.0000
       350        TRIAXIAL          0.0000          0.0000          0.0000          0.0000          0.0000          0.0000
       351        TRIAXIAL          0.0000          0.0000          0.0000          0.0000          0.0000          0.0000
       352        TRIAXIAL          0.0000          0.0000          0.0000          0.0000          0.0000          0.0000
       353        TRIAXIAL          0.0000          0.0000          0.0000          0.0000          0.0000          0.0000
       354        TRIAXIAL          0.0000          0.0000          0.0000          0.0000          0.0000          0.0000
       355        TRIAXIAL          0.0000          0.0000          0.0000          0.0000          0.0000          0.0000
       576           BALSA          0.0000          0.0000          0.0000          0.0000          0.0000          0.0000
       577           BALSA          0.0000          0.0000          0.0000          0.0000          0.0000          0.0000
       578           BALSA          0.0000          0.0000          0.0000          0.0000          0.0000          0.0000
       579           BALSA          0.0000          0.0000          0.0000          0.0000          0.0000          0.0000
       580           BALSA          0.0000          0.0000          0.0000          0.0000          0.0000          0.0000
       581           BALSA          0.0000          0.0000          0.0000          0.0000          0.0000          0.0000
       582           BALSA          0.0000          0.0000          0.0000          0.0000          0.0000          0.0000
       583           BALSA          0.0000          0.0000          0.0000          0.0000          0.0000          0.0000
       584           BALSA          0.0000          0.0000          0.0000          0.0000          0.0000          0.0000
       585           BALSA          0.0000          0.0000          0.0000          0.0000          0.0000          0.0000
       586           BALSA          0.0000          0.0000          0.0000          0.0000          0.0000          0.0000
       587           BALSA          0.0000          0.0000          0.0000          0.0000          0.0000          0.0000
       588           BALSA          0.0000          0.0000          0.0000          0.0000          0.0000          0.0000
       809        TRIAXIAL          0.0000          0.0000          0.0000          0.0000          0.0000          0.0000
       810        TRIAXIAL          0.0000          0.0000          0.0000          0.0000          0.0000          0.0000
       811        TRIAXIAL          0.0000          0.0000          0.0000          0.0000          0.0000          0.0000
       812        TRIAXIAL          0.0000          0.0000          0.0000          0.0000          0.0000          0.0000
       813        TRIAXIAL          0.0000          0.0000          0.0000          0.0000          0.0000          0.0000
       814        TRIAXIAL          0.0000          0.0000          0.0000          0.0000          0.0000          0.0000
       815        TRIAXIAL          0.0000          0.0000          0.0000          0.0000          0.0000          0.0000
       816        TRIAXIAL          0.0000          0.0000          0.0000          0.0000          0.0000          0.0000
       817        TRIAXIAL          0.0000          0.0000          0.0000          0.0000          0.0000          0.0000
       818        TRIAXIAL          0.0000          0.0000          0.0000          0.0000          0.0000          0.0000
       819        TRIAXIAL          0.0000          0.0000          0.0000          0.0000          0.0000          0.0000
       820        TRIAXIAL          0.0000          0.0000          0.0000          0.0000          0.0000          0.0000
       821        TRIAXIAL          0.0000          0.0000          0.0000          0.0000          0.0000          0.0000
**************************************************************************************************************************** 
ELEMENT_8: 
**************************************************************************************************************************** 
	 Maximum stress: 

	 	 	 	 	 	 	 	 	 Max value [MPa] Element ID 	 	 Material 
	    Sigma_xx           0.0000        123                PAINT 
	    Sigma_yy           0.0000        123                PAINT 
	    Sigma_xy           0.0000        123                PAINT 
	    Sigma_xz           0.0000        123                PAINT 
	    Sigma_yz           0.0000        123                PAINT 
	    Sigma_zz           0.0000        123                PAINT 

	 Minimum stress: 

	 	 	 	 	 	 	 	 	 Min value [MPa] Element ID 	 	 Material 
	   Sigma_xx           0.0000        123                PAINT 
	   Sigma_yy           0.0000        123                PAINT 
	   Sigma_xy           0.0000        123                PAINT 
	   Sigma_xz           0.0000        123                PAINT 
	   Sigma_yz           0.0000        123                PAINT 
	   Sigma_zz           0.0000        123                PAINT 

**************************************************************************************************************************** 
	 Element:   Material        sigma_xx [Mpa]  sigma_yy [Mpa]  sigma_xy [Mpa]  sigma_xz [Mpa]  sigma_yz [Mpa]  sigma_zz [Mpa]  
       123           PAINT          0.0000          0.0000          0.0000          0.0000          0.0000          0.0000
       124           PAINT          0.0000          0.0000          0.0000          0.0000          0.0000          0.0000
       125           PAINT          0.0000          0.0000          0.0000          0.0000          0.0000          0.0000
       126           PAINT          0.0000          0.0000          0.0000          0.0000          0.0000          0.0000
       127           PAINT          0.0000          0.0000          0.0000          0.0000          0.0000          0.0000
       128           PAINT          0.0000          0.0000          0.0000          0.0000          0.0000          0.0000
       129           PAINT          0.0000          0.0000          0.0000          0.0000          0.0000          0.0000
       130           PAINT          0.0000          0.0000          0.0000          0.0000          0.0000          0.0000
       131           PAINT          0.0000          0.0000          0.0000          0.0000          0.0000          0.0000
       132           PAINT          0.0000          0.0000          0.0000          0.0000          0.0000          0.0000
       133           PAINT          0.0000          0.0000          0.0000          0.0000          0.0000          0.0000
       134           PAINT          0.0000          0.0000          0.0000          0.0000          0.0000          0.0000
       135           PAINT          0.0000          0.0000          0.0000          0.0000          0.0000          0.0000
       136           PAINT          0.0000          0.0000          0.0000          0.0000          0.0000          0.0000
       137           PAINT          0.0000          0.0000          0.0000          0.0000          0.0000          0.0000
       138           PAINT          0.0000          0.0000          0.0000          0.0000          0.0000          0.0000
       139           PAINT          0.0000          0.0000          0.0000          0.0000          0.0000          0.0000
       140           PAINT          0.0000          0.0000          0.0000          0.0000          0.0000          0.0000
       141           PAINT          0.0000          0.0000          0.0000          0.0000          0.0000          0.0000
       142           PAINT          0.0000          0.0000          0.0000          0.0000          0.0000          0.0000
       143           PAINT          0.0000          0.0000          0.0000          0.0000          0.0000          0.0000
       144           PAINT          0.0000          0.0000          0.0000          0.0000          0.0000          0.0000
       145           PAINT          0.0000          0.0000          0.0000          0.0000          0.0000          0.0000
       146           PAINT          0.0000          0.0000          0.0000          0.0000          0.0000          0.0000
       147           PAINT          0.0000          0.0000          0.0000          0.0000          0.0000          0.0000
       148           PAINT          0.0000          0.0000          0.0000          0.0000          0.0000          0.0000
       149           PAINT          0.0000          0.0000          0.0000          0.0000          0.0000          0.0000
       150           PAINT          0.0000          0.0000          0.0000          0.0000          0.0000          0.0000
       356        TRIAXIAL          0.0000          0.0000          0.0000          0.0000          0.0000          0.0000
       357        TRIAXIAL          0.0000          0.0000          0.0000          0.0000          0.0000          0.0000
       358        TRIAXIAL          0.0000          0.0000          0.0000          0.0000          0.0000          0.0000
       359        TRIAXIAL          0.0000          0.0000          0.0000          0.0000          0.0000          0.0000
       360        TRIAXIAL          0.0000          0.0000          0.0000          0.0000          0.0000          0.0000
       361        TRIAXIAL          0.0000          0.0000          0.0000          0.0000          0.0000          0.0000
       362        TRIAXIAL          0.0000          0.0000          0.0000          0.0000          0.0000          0.0000
       363        TRIAXIAL          0.0000          0.0000          0.0000          0.0000          0.0000          0.0000
       364        TRIAXIAL          0.0000          0.0000          0.0000          0.0000          0.0000          0.0000
       365        TRIAXIAL          0.0000          0.0000          0.0000          0.0000          0.0000          0.0000
       366        TRIAXIAL          0.0000          0.0000          0.0000          0.0000          0.0000          0.0000
       367        TRIAXIAL          0.0000          0.0000          0.0000          0.0000          0.0000          0.0000
       368        TRIAXIAL          0.0000          0.0000          0.0000          0.0000          0.0000          0.0000
       369        TRIAXIAL          0.0000          0.0000          0.0000          0.0000          0.0000          0.0000
       370        TRIAXIAL          0.0000          0.0000          0.0000          0.0000          0.0000          0.0000
       371        TRIAXIAL          0.0000          0.0000          0.0000          0.0000          0.0000          0.0000
       372        TRIAXIAL          0.0000          0.0000          0.0000          0.0000          0.0000          0.0000
       373        TRIAXIAL          0.0000          0.0000          0.0000          0.0000          0.0000          0.0000
       374        TRIAXIAL          0.0000          0.0000          0.0000          0.0000          0.0000          0.0000
       375        TRIAXIAL          0.0000          0.0000          0.0000          0.0000          0.0000          0.0000
       376        TRIAXIAL          0.0000          0.0000          0.0000          0.0000          0.0000          0.0000
       377        TRIAXIAL          0.0000          0.0000          0.0000          0.0000          0.0000          0.0000
       378        TRIAXIAL          0.0000          0.0000          0.0000          0.0000          0.0000          0.0000
       379        TRIAXIAL          0.0000          0.0000          0.0000          0.0000          0.0000          0.0000
       380        TRIAXIAL          0.0000          0.0000          0.0000          0.0000          0.0000          0.0000
       381        TRIAXIAL          0.0000          0.0000          0.0000          0.0000          0.0000          0.0000
       382        TRIAXIAL          0.0000          0.0000          0.0000          0.0000          0.0000          0.0000
       383        TRIAXIAL          0.0000          0.0000          0.0000          0.0000          0.0000          0.0000
       589  UNIDIRECTIONAL          0.0000          0.0000          0.0000          0.0000          0.0000          0.0000
       590  UNIDIRECTIONAL          0.0000          0.0000          0.0000          0.0000          0.0000          0.0000
       591  UNIDIRECTIONAL          0.0000          0.0000          0.0000          0.0000          0.0000          0.0000
       592  UNIDIRECTIONAL          0.0000          0.0000          0.0000          0.0000          0.0000          0.0000
       593  UNIDIRECTIONAL          0.0000          0.0000          0.0000          0.0000          0.0000          0.0000
       594  UNIDIRECTIONAL          0.0000          0.0000          0.0000          0.0000          0.0000          0.0000
       595  UNIDIRECTIONAL          0.0000          0.0000          0.0000          0.0000          0.0000          0.0000
       596  UNIDIRECTIONAL          0.0000          0.0000          0.0000          0.0000          0.0000          0.0000
       597  UNIDIRECTIONAL          0.0000          0.0000          0.0000          0.0000          0.0000          0.0000
       598  UNIDIRECTIONAL          0.0000          0.0000          0.0000          0.0000          0.0000          0.0000
       599  UNIDIRECTIONAL          0.0000          0.0000          0.0000          0.0000          0.0000          0.0000
       600  UNIDIRECTIONAL          0.0000          0.0000          0.0000          0.0000          0.0000          0.0000
       601  UNIDIRECTIONAL          0.0000          0.0000          0.0000          0.0000          0.0000          0.0000
       602  UNIDIRECTIONAL          0.0000          0.0000          0.0000          0.0000          0.0000          0.0000
       603  UNIDIRECTIONAL          0.0000          0.0000          0.0000          0.0000          0.0000          0.0000
       604  UNIDIRECTIONAL          0.0000          0.0000          0.0000          0.0000          0.0000          0.0000
       605  UNIDIRECTIONAL          0.0000          0.0000          0.0000          0.0000          0.0000          0.0000
       606  UNIDIRECTIONAL          0.0000          0.0000          0.0000          0.0000          0.0000          0.0000
       607  UNIDIRECTIONAL          0.0000          0.0000          0.0000          0.0000          0.0000          0.0000
       608  UNIDIRECTIONAL          0.0000          0.0000          0.0000          0.0000          0.0000          0.0000
       609  UNIDIRECTIONAL          0.0000          0.0000          0.0000          0.0000          0.0000          0.0000
       610  UNIDIRECTIONAL          0.0000          0.0000          0.0000          0.0000          0.0000          0.0000
       611  UNIDIRECTIONAL          0.0000          0.0000          0.0000          0.0000          0.0000          0.0000
       612  UNIDIRECTIONAL          0.0000          0.0000          0.0000          0.0000          0.0000          0.0000
       613  UNIDIRECTIONAL          0.0000          0.0000          0.0000          0.0000          0.0000          0.0000
       614  UNIDIRECTIONAL          0.0000          0.0000          0.0000          0.0000          0.0000          0.0000
       615  UNIDIRECTIONAL          0.0000          0.0000          0.0000          0.0000          0.0000          0.0000
       616  UNIDIRECTIONAL          0.0000          0.0000          0.0000          0.0000          0.0000          0.0000
       822        TRIAXIAL          0.0000          0.0000          0.0000          0.0000          0.0000          0.0000
       823        TRIAXIAL          0.0000          0.0000          0.0000          0.0000          0.0000          0.0000
       824        TRIAXIAL          0.0000          0.0000          0.0000          0.0000          0.0000          0.0000
       825        TRIAXIAL          0.0000          0.0000          0.0000          0.0000          0.0000          0.0000
       826        TRIAXIAL          0.0000          0.0000          0.0000          0.0000          0.0000          0.0000
       827        TRIAXIAL          0.0000          0.0000          0.0000          0.0000          0.0000          0.0000
       828        TRIAXIAL          0.0000          0.0000          0.0000          0.0000          0.0000          0.0000
       829        TRIAXIAL          0.0000          0.0000          0.0000          0.0000          0.0000          0.0000
       830        TRIAXIAL          0.0000          0.0000          0.0000          0.0000          0.0000          0.0000
       831        TRIAXIAL          0.0000          0.0000          0.0000          0.0000          0.0000          0.0000
       832        TRIAXIAL          0.0000          0.0000          0.0000          0.0000          0.0000          0.0000
       833        TRIAXIAL          0.0000          0.0000          0.0000          0.0000          0.0000          0.0000
       834        TRIAXIAL          0.0000          0.0000          0.0000          0.0000          0.0000          0.0000
       835        TRIAXIAL          0.0000          0.0000          0.0000          0.0000          0.0000          0.0000
       836        TRIAXIAL          0.0000          0.0000          0.0000          0.0000          0.0000          0.0000
       837        TRIAXIAL          0.0000          0.0000          0.0000          0.0000          0.0000          0.0000
       838        TRIAXIAL          0.0000          0.0000          0.0000          0.0000          0.0000          0.0000
       839        TRIAXIAL          0.0000          0.0000          0.0000          0.0000          0.0000          0.0000
       840        TRIAXIAL          0.0000          0.0000          0.0000          0.0000          0.0000          0.0000
       841        TRIAXIAL          0.0000          0.0000          0.0000          0.0000          0.0000          0.0000
       842        TRIAXIAL          0.0000          0.0000          0.0000          0.0000          0.0000          0.0000
       843        TRIAXIAL          0.0000          0.0000          0.0000          0.0000          0.0000          0.0000
       844        TRIAXIAL          0.0000          0.0000          0.0000          0.0000          0.0000          0.0000
       845        TRIAXIAL          0.0000          0.0000          0.0000          0.0000          0.0000          0.0000
       846        TRIAXIAL          0.0000          0.0000          0.0000          0.0000          0.0000          0.0000
       847        TRIAXIAL          0.0000          0.0000          0.0000          0.0000          0.0000          0.0000
       848        TRIAXIAL          0.0000          0.0000          0.0000          0.0000          0.0000          0.0000
       849        TRIAXIAL          0.0000          0.0000          0.0000          0.0000          0.0000          0.0000
**************************************************************************************************************************** 
ELEMENT_9: 
**************************************************************************************************************************** 
	 Maximum stress: 

	 	 	 	 	 	 	 	 	 Max value [MPa] Element ID 	 	 Material 
	    Sigma_xx           0.0000        151                PAINT 
	    Sigma_yy           0.0000        151                PAINT 
	    Sigma_xy           0.0000        151                PAINT 
	    Sigma_xz           0.0000        151                PAINT 
	    Sigma_yz           0.0000        151                PAINT 
	    Sigma_zz           0.0000        151                PAINT 

	 Minimum stress: 

	 	 	 	 	 	 	 	 	 Min value [MPa] Element ID 	 	 Material 
	   Sigma_xx           0.0000        151                PAINT 
	   Sigma_yy           0.0000        151                PAINT 
	   Sigma_xy           0.0000        151                PAINT 
	   Sigma_xz           0.0000        151                PAINT 
	   Sigma_yz           0.0000        151                PAINT 
	   Sigma_zz           0.0000        151                PAINT 

**************************************************************************************************************************** 
	 Element:   Material        sigma_xx [Mpa]  sigma_yy [Mpa]  sigma_xy [Mpa]  sigma_xz [Mpa]  sigma_yz [Mpa]  sigma_zz [Mpa]  
       151           PAINT          0.0000          0.0000          0.0000          0.0000          0.0000          0.0000
       152           PAINT          0.0000          0.0000          0.0000          0.0000          0.0000          0.0000
       153           PAINT          0.0000          0.0000          0.0000          0.0000          0.0000          0.0000
       154           PAINT          0.0000          0.0000          0.0000          0.0000          0.0000          0.0000
       155           PAINT          0.0000          0.0000          0.0000          0.0000          0.0000          0.0000
       156           PAINT          0.0000          0.0000          0.0000          0.0000          0.0000          0.0000
       157           PAINT          0.0000          0.0000          0.0000          0.0000          0.0000          0.0000
       158           PAINT          0.0000          0.0000          0.0000          0.0000          0.0000          0.0000
       159           PAINT          0.0000          0.0000          0.0000          0.0000          0.0000          0.0000
       160           PAINT          0.0000          0.0000          0.0000          0.0000          0.0000          0.0000
       161           PAINT          0.0000          0.0000          0.0000          0.0000          0.0000          0.0000
       162           PAINT          0.0000          0.0000          0.0000          0.0000          0.0000          0.0000
       163           PAINT          0.0000          0.0000          0.0000          0.0000          0.0000          0.0000
       164           PAINT          0.0000          0.0000          0.0000          0.0000          0.0000          0.0000
       165           PAINT          0.0000          0.0000          0.0000          0.0000          0.0000          0.0000
       166           PAINT          0.0000          0.0000          0.0000          0.0000          0.0000          0.0000
       167           PAINT          0.0000          0.0000          0.0000          0.0000          0.0000          0.0000
       168           PAINT          0.0000          0.0000          0.0000          0.0000          0.0000          0.0000
       169           PAINT          0.0000          0.0000          0.0000          0.0000          0.0000          0.0000
       170           PAINT          0.0000          0.0000          0.0000          0.0000          0.0000          0.0000
       171           PAINT          0.0000          0.0000          0.0000          0.0000          0.0000          0.0000
       172           PAINT          0.0000          0.0000          0.0000          0.0000          0.0000          0.0000
       173           PAINT          0.0000          0.0000          0.0000          0.0000          0.0000          0.0000
       174           PAINT          0.0000          0.0000          0.0000          0.0000          0.0000          0.0000
       175           PAINT          0.0000          0.0000          0.0000          0.0000          0.0000          0.0000
       176           PAINT          0.0000          0.0000          0.0000          0.0000          0.0000          0.0000
       177           PAINT          0.0000          0.0000          0.0000          0.0000          0.0000          0.0000
       178           PAINT          0.0000          0.0000          0.0000          0.0000          0.0000          0.0000
       179           PAINT          0.0000          0.0000          0.0000          0.0000          0.0000          0.0000
       180           PAINT          0.0000          0.0000          0.0000          0.0000          0.0000          0.0000
       181           PAINT          0.0000          0.0000          0.0000          0.0000          0.0000          0.0000
       182           PAINT          0.0000          0.0000          0.0000          0.0000          0.0000          0.0000
       183           PAINT          0.0000          0.0000          0.0000          0.0000          0.0000          0.0000
       184           PAINT          0.0000          0.0000          0.0000          0.0000          0.0000          0.0000
       185           PAINT          0.0000          0.0000          0.0000          0.0000          0.0000          0.0000
       186           PAINT          0.0000          0.0000          0.0000          0.0000          0.0000          0.0000
       187           PAINT          0.0000          0.0000          0.0000          0.0000          0.0000          0.0000
       188           PAINT          0.0000          0.0000          0.0000          0.0000          0.0000          0.0000
       384        TRIAXIAL          0.0000          0.0000          0.0000          0.0000          0.0000          0.0000
       385        TRIAXIAL          0.0000          0.0000          0.0000          0.0000          0.0000          0.0000
       386        TRIAXIAL          0.0000          0.0000          0.0000          0.0000          0.0000          0.0000
       387        TRIAXIAL          0.0000          0.0000          0.0000          0.0000          0.0000          0.0000
       388        TRIAXIAL          0.0000          0.0000          0.0000          0.0000          0.0000          0.0000
       389        TRIAXIAL          0.0000          0.0000          0.0000          0.0000          0.0000          0.0000
       390        TRIAXIAL          0.0000          0.0000          0.0000          0.0000          0.0000          0.0000
       391        TRIAXIAL          0.0000          0.0000          0.0000          0.0000          0.0000          0.0000
       392        TRIAXIAL          0.0000          0.0000          0.0000          0.0000          0.0000          0.0000
       393        TRIAXIAL          0.0000          0.0000          0.0000          0.0000          0.0000          0.0000
       394        TRIAXIAL          0.0000          0.0000          0.0000          0.0000          0.0000          0.0000
       395        TRIAXIAL          0.0000          0.0000          0.0000          0.0000          0.0000          0.0000
       396        TRIAXIAL          0.0000          0.0000          0.0000          0.0000          0.0000          0.0000
       397        TRIAXIAL          0.0000          0.0000          0.0000          0.0000          0.0000          0.0000
       398        TRIAXIAL          0.0000          0.0000          0.0000          0.0000          0.0000          0.0000
       399        TRIAXIAL          0.0000          0.0000          0.0000          0.0000          0.0000          0.0000
       400        TRIAXIAL          0.0000          0.0000          0.0000          0.0000          0.0000          0.0000
       401        TRIAXIAL          0.0000          0.0000          0.0000          0.0000          0.0000          0.0000
       402        TRIAXIAL          0.0000          0.0000          0.0000          0.0000          0.0000          0.0000
       403        TRIAXIAL          0.0000          0.0000          0.0000          0.0000          0.0000          0.0000
       404        TRIAXIAL          0.0000          0.0000          0.0000          0.0000          0.0000          0.0000
       405        TRIAXIAL          0.0000          0.0000          0.0000          0.0000          0.0000          0.0000
       406        TRIAXIAL          0.0000          0.0000          0.0000          0.0000          0.0000          0.0000
       407        TRIAXIAL          0.0000          0.0000          0.0000          0.0000          0.0000          0.0000
       408        TRIAXIAL          0.0000          0.0000          0.0000          0.0000          0.0000          0.0000
       409        TRIAXIAL          0.0000          0.0000          0.0000          0.0000          0.0000          0.0000
       410        TRIAXIAL          0.0000          0.0000          0.0000          0.0000          0.0000          0.0000
       411        TRIAXIAL          0.0000          0.0000          0.0000          0.0000          0.0000          0.0000
       412        TRIAXIAL          0.0000          0.0000          0.0000          0.0000          0.0000          0.0000
       413        TRIAXIAL          0.0000          0.0000          0.0000          0.0000          0.0000          0.0000
       414        TRIAXIAL          0.0000          0.0000          0.0000          0.0000          0.0000          0.0000
       415        TRIAXIAL          0.0000          0.0000          0.0000          0.0000          0.0000          0.0000
       416        TRIAXIAL          0.0000          0.0000          0.0000          0.0000          0.0000          0.0000
       417        TRIAXIAL          0.0000          0.0000          0.0000          0.0000          0.0000          0.0000
       418        TRIAXIAL          0.0000          0.0000          0.0000          0.0000          0.0000          0.0000
       419        TRIAXIAL          0.0000          0.0000          0.0000          0.0000          0.0000          0.0000
       420        TRIAXIAL          0.0000          0.0000          0.0000          0.0000          0.0000          0.0000
       421        TRIAXIAL          0.0000          0.0000          0.0000          0.0000          0.0000          0.0000
       617           BALSA          0.0000          0.0000          0.0000          0.0000          0.0000          0.0000
       618           BALSA          0.0000          0.0000          0.0000          0.0000          0.0000          0.0000
       619           BALSA          0.0000          0.0000          0.0000          0.0000          0.0000          0.0000
       620           BALSA          0.0000          0.0000          0.0000          0.0000          0.0000          0.0000
       621           BALSA          0.0000          0.0000          0.0000          0.0000          0.0000          0.0000
       622           BALSA          0.0000          0.0000          0.0000          0.0000          0.0000          0.0000
       623           BALSA          0.0000          0.0000          0.0000          0.0000          0.0000          0.0000
       624           BALSA          0.0000          0.0000          0.0000          0.0000          0.0000          0.0000
       625           BALSA          0.0000          0.0000          0.0000          0.0000          0.0000          0.0000
       626           BALSA          0.0000          0.0000          0.0000          0.0000          0.0000          0.0000
       627           BALSA          0.0000          0.0000          0.0000          0.0000          0.0000          0.0000
       628           BALSA          0.0000          0.0000          0.0000          0.0000          0.0000          0.0000
       629           BALSA          0.0000          0.0000          0.0000          0.0000          0.0000          0.0000
       630           BALSA          0.0000          0.0000          0.0000          0.0000          0.0000          0.0000
       631           BALSA          0.0000          0.0000          0.0000          0.0000          0.0000          0.0000
       632           BALSA          0.0000          0.0000          0.0000          0.0000          0.0000          0.0000
       633           BALSA          0.0000          0.0000          0.0000          0.0000          0.0000          0.0000
       634           BALSA          0.0000          0.0000          0.0000          0.0000          0.0000          0.0000
       635           BALSA          0.0000          0.0000          0.0000          0.0000          0.0000          0.0000
       636           BALSA          0.0000          0.0000          0.0000          0.0000          0.0000          0.0000
       637           BALSA          0.0000          0.0000          0.0000          0.0000          0.0000          0.0000
       638           BALSA          0.0000          0.0000          0.0000          0.0000          0.0000          0.0000
       639           BALSA          0.0000          0.0000          0.0000          0.0000          0.0000          0.0000
       640           BALSA          0.0000          0.0000          0.0000          0.0000          0.0000          0.0000
       641           BALSA          0.0000          0.0000          0.0000          0.0000          0.0000          0.0000
       642           BALSA          0.0000          0.0000          0.0000          0.0000          0.0000          0.0000
       643           BALSA          0.0000          0.0000          0.0000          0.0000          0.0000          0.0000
       644           BALSA          0.0000          0.0000          0.0000          0.0000          0.0000          0.0000
       645           BALSA          0.0000          0.0000          0.0000          0.0000          0.0000          0.0000
       646           BALSA          0.0000          0.0000          0.0000          0.0000          0.0000          0.0000
       647           BALSA          0.0000          0.0000          0.0000          0.0000          0.0000          0.0000
       648           BALSA          0.0000          0.0000          0.0000          0.0000          0.0000          0.0000
       649           BALSA          0.0000          0.0000          0.0000          0.0000          0.0000          0.0000
       650           BALSA          0.0000          0.0000          0.0000          0.0000          0.0000          0.0000
       651           BALSA          0.0000          0.0000          0.0000          0.0000          0.0000          0.0000
       652           BALSA          0.0000          0.0000          0.0000          0.0000          0.0000          0.0000
       653           BALSA          0.0000          0.0000          0.0000          0.0000          0.0000          0.0000
       654           BALSA          0.0000          0.0000          0.0000          0.0000          0.0000          0.0000
       850        TRIAXIAL          0.0000          0.0000          0.0000          0.0000          0.0000          0.0000
       851        TRIAXIAL          0.0000          0.0000          0.0000          0.0000          0.0000          0.0000
       852        TRIAXIAL          0.0000          0.0000          0.0000          0.0000          0.0000          0.0000
       853        TRIAXIAL          0.0000          0.0000          0.0000          0.0000          0.0000          0.0000
       854        TRIAXIAL          0.0000          0.0000          0.0000          0.0000          0.0000          0.0000
       855        TRIAXIAL          0.0000          0.0000          0.0000          0.0000          0.0000          0.0000
       856        TRIAXIAL          0.0000          0.0000          0.0000          0.0000          0.0000          0.0000
       857        TRIAXIAL          0.0000          0.0000          0.0000          0.0000          0.0000          0.0000
       858        TRIAXIAL          0.0000          0.0000          0.0000          0.0000          0.0000          0.0000
       859        TRIAXIAL          0.0000          0.0000          0.0000          0.0000          0.0000          0.0000
       860        TRIAXIAL          0.0000          0.0000          0.0000          0.0000          0.0000          0.0000
       861        TRIAXIAL          0.0000          0.0000          0.0000          0.0000          0.0000          0.0000
       862        TRIAXIAL          0.0000          0.0000          0.0000          0.0000          0.0000          0.0000
       863        TRIAXIAL          0.0000          0.0000          0.0000          0.0000          0.0000          0.0000
       864        TRIAXIAL          0.0000          0.0000          0.0000          0.0000          0.0000          0.0000
       865        TRIAXIAL          0.0000          0.0000          0.0000          0.0000          0.0000          0.0000
       866        TRIAXIAL          0.0000          0.0000          0.0000          0.0000          0.0000          0.0000
       867        TRIAXIAL          0.0000          0.0000          0.0000          0.0000          0.0000          0.0000
       868        TRIAXIAL          0.0000          0.0000          0.0000          0.0000          0.0000          0.0000
       869        TRIAXIAL          0.0000          0.0000          0.0000          0.0000          0.0000          0.0000
       870        TRIAXIAL          0.0000          0.0000          0.0000          0.0000          0.0000          0.0000
       871        TRIAXIAL          0.0000          0.0000          0.0000          0.0000          0.0000          0.0000
       872        TRIAXIAL          0.0000          0.0000          0.0000          0.0000          0.0000          0.0000
       873        TRIAXIAL          0.0000          0.0000          0.0000          0.0000          0.0000          0.0000
       874        TRIAXIAL          0.0000          0.0000          0.0000          0.0000          0.0000          0.0000
       875        TRIAXIAL          0.0000          0.0000          0.0000          0.0000          0.0000          0.0000
       876        TRIAXIAL          0.0000          0.0000          0.0000          0.0000          0.0000          0.0000
       877        TRIAXIAL          0.0000          0.0000          0.0000          0.0000          0.0000          0.0000
       878        TRIAXIAL          0.0000          0.0000          0.0000          0.0000          0.0000          0.0000
       879        TRIAXIAL          0.0000          0.0000          0.0000          0.0000          0.0000          0.0000
       880        TRIAXIAL          0.0000          0.0000          0.0000          0.0000          0.0000          0.0000
       881        TRIAXIAL          0.0000          0.0000          0.0000          0.0000          0.0000          0.0000
       882        TRIAXIAL          0.0000          0.0000          0.0000          0.0000          0.0000          0.0000
       883        TRIAXIAL          0.0000          0.0000          0.0000          0.0000          0.0000          0.0000
       884        TRIAXIAL          0.0000          0.0000          0.0000          0.0000          0.0000          0.0000
       885        TRIAXIAL          0.0000          0.0000          0.0000          0.0000          0.0000          0.0000
       886        TRIAXIAL          0.0000          0.0000          0.0000          0.0000          0.0000          0.0000
       887        TRIAXIAL          0.0000          0.0000          0.0000          0.0000          0.0000          0.0000
**************************************************************************************************************************** 
ELEMENT_10: 
**************************************************************************************************************************** 
	 Maximum stress: 

	 	 	 	 	 	 	 	 	 Max value [MPa] Element ID 	 	 Material 
	    Sigma_xx           0.0000        189                PAINT 
	    Sigma_yy           0.0000        189                PAINT 
	    Sigma_xy           0.0000        189                PAINT 
	    Sigma_xz           0.0000        189                PAINT 
	    Sigma_yz           0.0000        189                PAINT 
	    Sigma_zz           0.0000        189                PAINT 

	 Minimum stress: 

	 	 	 	 	 	 	 	 	 Min value [MPa] Element ID 	 	 Material 
	   Sigma_xx           0.0000        189                PAINT 
	   Sigma_yy           0.0000        189                PAINT 
	   Sigma_xy           0.0000        189                PAINT 
	   Sigma_xz           0.0000        189                PAINT 
	   Sigma_yz           0.0000        189                PAINT 
	   Sigma_zz           0.0000        189                PAINT 

**************************************************************************************************************************** 
	 Element:   Material        sigma_xx [Mpa]  sigma_yy [Mpa]  sigma_xy [Mpa]  sigma_xz [Mpa]  sigma_yz [Mpa]  sigma_zz [Mpa]  
       189           PAINT          0.0000          0.0000          0.0000          0.0000          0.0000          0.0000
       190           PAINT          0.0000          0.0000          0.0000          0.0000          0.0000          0.0000
       191           PAINT          0.0000          0.0000          0.0000          0.0000          0.0000          0.0000
       192           PAINT          0.0000          0.0000          0.0000          0.0000          0.0000          0.0000
       193           PAINT          0.0000          0.0000          0.0000          0.0000          0.0000          0.0000
       194           PAINT          0.0000          0.0000          0.0000          0.0000          0.0000          0.0000
       195           PAINT          0.0000          0.0000          0.0000          0.0000          0.0000          0.0000
       196           PAINT          0.0000          0.0000          0.0000          0.0000          0.0000          0.0000
       197           PAINT          0.0000          0.0000          0.0000          0.0000          0.0000          0.0000
       198           PAINT          0.0000          0.0000          0.0000          0.0000          0.0000          0.0000
       422        TRIAXIAL          0.0000          0.0000          0.0000          0.0000          0.0000          0.0000
       423        TRIAXIAL          0.0000          0.0000          0.0000          0.0000          0.0000          0.0000
       424        TRIAXIAL          0.0000          0.0000          0.0000          0.0000          0.0000          0.0000
       425        TRIAXIAL          0.0000          0.0000          0.0000          0.0000          0.0000          0.0000
       426        TRIAXIAL          0.0000          0.0000          0.0000          0.0000          0.0000          0.0000
       427        TRIAXIAL          0.0000          0.0000          0.0000          0.0000          0.0000          0.0000
       428        TRIAXIAL          0.0000          0.0000          0.0000          0.0000          0.0000          0.0000
       429        TRIAXIAL          0.0000          0.0000          0.0000          0.0000          0.0000          0.0000
       430        TRIAXIAL          0.0000          0.0000          0.0000          0.0000          0.0000          0.0000
       431        TRIAXIAL          0.0000          0.0000          0.0000          0.0000          0.0000          0.0000
       655   REINFORCEMENT          0.0000          0.0000          0.0000          0.0000          0.0000          0.0000
       656   REINFORCEMENT          0.0000          0.0000          0.0000          0.0000          0.0000          0.0000
       657   REINFORCEMENT          0.0000          0.0000          0.0000          0.0000          0.0000          0.0000
       658   REINFORCEMENT          0.0000          0.0000          0.0000          0.0000          0.0000          0.0000
       659   REINFORCEMENT          0.0000          0.0000          0.0000          0.0000          0.0000          0.0000
       660   REINFORCEMENT          0.0000          0.0000          0.0000          0.0000          0.0000          0.0000
       661   REINFORCEMENT          0.0000          0.0000          0.0000          0.0000          0.0000          0.0000
       662   REINFORCEMENT          0.0000          0.0000          0.0000          0.0000          0.0000          0.0000
       663   REINFORCEMENT          0.0000          0.0000          0.0000          0.0000          0.0000          0.0000
       664   REINFORCEMENT          0.0000          0.0000          0.0000          0.0000          0.0000          0.0000
       888        TRIAXIAL          0.0000          0.0000          0.0000          0.0000          0.0000          0.0000
       889        TRIAXIAL          0.0000          0.0000          0.0000          0.0000          0.0000          0.0000
       890        TRIAXIAL          0.0000          0.0000          0.0000          0.0000          0.0000          0.0000
       891        TRIAXIAL          0.0000          0.0000          0.0000          0.0000          0.0000          0.0000
       892        TRIAXIAL          0.0000          0.0000          0.0000          0.0000          0.0000          0.0000
       893        TRIAXIAL          0.0000          0.0000          0.0000          0.0000          0.0000          0.0000
       894        TRIAXIAL          0.0000          0.0000          0.0000          0.0000          0.0000          0.0000
       895        TRIAXIAL          0.0000          0.0000          0.0000          0.0000          0.0000          0.0000
       896        TRIAXIAL          0.0000          0.0000          0.0000          0.0000          0.0000          0.0000
       897        TRIAXIAL          0.0000          0.0000          0.0000          0.0000          0.0000          0.0000
**************************************************************************************************************************** 
ELEMENT_11: 
**************************************************************************************************************************** 
	 Maximum stress: 

	 	 	 	 	 	 	 	 	 Max value [MPa] Element ID 	 	 Material 
	    Sigma_xx           0.0000        199              BIAXIAL 
	    Sigma_yy           0.0000        199              BIAXIAL 
	    Sigma_xy           0.0000        199              BIAXIAL 
	    Sigma_xz           0.0000        199              BIAXIAL 
	    Sigma_yz           0.0000        199              BIAXIAL 
	    Sigma_zz           0.0000        199              BIAXIAL 

	 Minimum stress: 

	 	 	 	 	 	 	 	 	 Min value [MPa] Element ID 	 	 Material 
	   Sigma_xx           0.0000        199              BIAXIAL 
	   Sigma_yy           0.0000        199              BIAXIAL 
	   Sigma_xy           0.0000        199              BIAXIAL 
	   Sigma_xz           0.0000        199              BIAXIAL 
	   Sigma_yz           0.0000        199              BIAXIAL 
	   Sigma_zz           0.0000        199              BIAXIAL 

**************************************************************************************************************************** 
	 Element:   Material        sigma_xx [Mpa]  sigma_yy [Mpa]  sigma_xy [Mpa]  sigma_xz [Mpa]  sigma_yz [Mpa]  sigma_zz [Mpa]  
       199         BIAXIAL          0.0000          0.0000          0.0000          0.0000          0.0000          0.0000
       200         BIAXIAL          0.0000          0.0000          0.0000          0.0000          0.0000          0.0000
       201         BIAXIAL          0.0000          0.0000          0.0000          0.0000          0.0000          0.0000
       202         BIAXIAL          0.0000          0.0000          0.0000          0.0000          0.0000          0.0000
       203         BIAXIAL          0.0000          0.0000          0.0000          0.0000          0.0000          0.0000
       204         BIAXIAL          0.0000          0.0000          0.0000          0.0000          0.0000          0.0000
       205         BIAXIAL          0.0000          0.0000          0.0000          0.0000          0.0000          0.0000
       206         BIAXIAL          0.0000          0.0000          0.0000          0.0000          0.0000          0.0000
       207         BIAXIAL          0.0000          0.0000          0.0000          0.0000          0.0000          0.0000
       208         BIAXIAL          0.0000          0.0000          0.0000          0.0000          0.0000          0.0000
       209         BIAXIAL          0.0000          0.0000          0.0000          0.0000          0.0000          0.0000
       210         BIAXIAL          0.0000          0.0000          0.0000          0.0000          0.0000          0.0000
       211         BIAXIAL          0.0000          0.0000          0.0000          0.0000          0.0000          0.0000
       212         BIAXIAL          0.0000          0.0000          0.0000          0.0000          0.0000          0.0000
       213         BIAXIAL          0.0000          0.0000          0.0000          0.0000          0.0000          0.0000
       214         BIAXIAL          0.0000          0.0000          0.0000          0.0000          0.0000          0.0000
       215         BIAXIAL          0.0000          0.0000          0.0000          0.0000          0.0000          0.0000
       432           BALSA          0.0000          0.0000          0.0000          0.0000          0.0000          0.0000
       433           BALSA          0.0000          0.0000          0.0000          0.0000          0.0000          0.0000
       434           BALSA          0.0000          0.0000          0.0000          0.0000          0.0000          0.0000
       435           BALSA          0.0000          0.0000          0.0000          0.0000          0.0000          0.0000
       436           BALSA          0.0000          0.0000          0.0000          0.0000          0.0000          0.0000
       437           BALSA          0.0000          0.0000          0.0000          0.0000          0.0000          0.0000
       438           BALSA          0.0000          0.0000          0.0000          0.0000          0.0000          0.0000
       439           BALSA          0.0000          0.0000          0.0000          0.0000          0.0000          0.0000
       440           BALSA          0.0000          0.0000          0.0000          0.0000          0.0000          0.0000
       441           BALSA          0.0000          0.0000          0.0000          0.0000          0.0000          0.0000
       442           BALSA          0.0000          0.0000          0.0000          0.0000          0.0000          0.0000
       443           BALSA          0.0000          0.0000          0.0000          0.0000          0.0000          0.0000
       444           BALSA          0.0000          0.0000          0.0000          0.0000          0.0000          0.0000
       445           BALSA          0.0000          0.0000          0.0000          0.0000          0.0000          0.0000
       446           BALSA          0.0000          0.0000          0.0000          0.0000          0.0000          0.0000
       447           BALSA          0.0000          0.0000          0.0000          0.0000          0.0000          0.0000
       448           BALSA          0.0000          0.0000          0.0000          0.0000          0.0000          0.0000
       665           BALSA          0.0000          0.0000          0.0000          0.0000          0.0000          0.0000
       666           BALSA          0.0000          0.0000          0.0000          0.0000          0.0000          0.0000
       667           BALSA          0.0000          0.0000          0.0000          0.0000          0.0000          0.0000
       668           BALSA          0.0000          0.0000          0.0000          0.0000          0.0000          0.0000
       669           BALSA          0.0000          0.0000          0.0000          0.0000          0.0000          0.0000
       670           BALSA          0.0000          0.0000          0.0000          0.0000          0.0000          0.0000
       671           BALSA          0.0000          0.0000          0.0000          0.0000          0.0000          0.0000
       672           BALSA          0.0000          0.0000          0.0000          0.0000          0.0000          0.0000
       673           BALSA          0.0000          0.0000          0.0000          0.0000          0.0000          0.0000
       674           BALSA          0.0000          0.0000          0.0000          0.0000          0.0000          0.0000
       675           BALSA          0.0000          0.0000          0.0000          0.0000          0.0000          0.0000
       676           BALSA          0.0000          0.0000          0.0000          0.0000          0.0000          0.0000
       677           BALSA          0.0000          0.0000          0.0000          0.0000          0.0000          0.0000
       678           BALSA          0.0000          0.0000          0.0000          0.0000          0.0000          0.0000
       679           BALSA          0.0000          0.0000          0.0000          0.0000          0.0000          0.0000
       680           BALSA          0.0000          0.0000          0.0000          0.0000          0.0000          0.0000
       681           BALSA          0.0000          0.0000          0.0000          0.0000          0.0000          0.0000
       898         BIAXIAL          0.0000          0.0000          0.0000          0.0000          0.0000          0.0000
       899         BIAXIAL          0.0000          0.0000          0.0000          0.0000          0.0000          0.0000
       900         BIAXIAL          0.0000          0.0000          0.0000          0.0000          0.0000          0.0000
       901         BIAXIAL          0.0000          0.0000          0.0000          0.0000          0.0000          0.0000
       902         BIAXIAL          0.0000          0.0000          0.0000          0.0000          0.0000          0.0000
       903         BIAXIAL          0.0000          0.0000          0.0000          0.0000          0.0000          0.0000
       904         BIAXIAL          0.0000          0.0000          0.0000          0.0000          0.0000          0.0000
       905         BIAXIAL          0.0000          0.0000          0.0000          0.0000          0.0000          0.0000
       906         BIAXIAL          0.0000          0.0000          0.0000          0.0000          0.0000          0.0000
       907         BIAXIAL          0.0000          0.0000          0.0000          0.0000          0.0000          0.0000
       908         BIAXIAL          0.0000          0.0000          0.0000          0.0000          0.0000          0.0000
       909         BIAXIAL          0.0000          0.0000          0.0000          0.0000          0.0000          0.0000
       910         BIAXIAL          0.0000          0.0000          0.0000          0.0000          0.0000          0.0000
       911         BIAXIAL          0.0000          0.0000          0.0000          0.0000          0.0000          0.0000
       912         BIAXIAL          0.0000          0.0000          0.0000          0.0000          0.0000          0.0000
       913         BIAXIAL          0.0000          0.0000          0.0000          0.0000          0.0000          0.0000
       914         BIAXIAL          0.0000          0.0000          0.0000          0.0000          0.0000          0.0000
**************************************************************************************************************************** 
ELEMENT_12: 
**************************************************************************************************************************** 
	 Maximum stress: 

	 	 	 	 	 	 	 	 	 Max value [MPa] Element ID 	 	 Material 
	    Sigma_xx           0.0000        216              BIAXIAL 
	    Sigma_yy           0.0000        216              BIAXIAL 
	    Sigma_xy           0.0000        216              BIAXIAL 
	    Sigma_xz           0.0000        216              BIAXIAL 
	    Sigma_yz           0.0000        216              BIAXIAL 
	    Sigma_zz           0.0000        216              BIAXIAL 

	 Minimum stress: 

	 	 	 	 	 	 	 	 	 Min value [MPa] Element ID 	 	 Material 
	   Sigma_xx           0.0000        216              BIAXIAL 
	   Sigma_yy           0.0000        216              BIAXIAL 
	   Sigma_xy           0.0000        216              BIAXIAL 
	   Sigma_xz           0.0000        216              BIAXIAL 
	   Sigma_yz           0.0000        216              BIAXIAL 
	   Sigma_zz           0.0000        216              BIAXIAL 

**************************************************************************************************************************** 
	 Element:   Material        sigma_xx [Mpa]  sigma_yy [Mpa]  sigma_xy [Mpa]  sigma_xz [Mpa]  sigma_yz [Mpa]  sigma_zz [Mpa]  
       216         BIAXIAL          0.0000          0.0000          0.0000          0.0000          0.0000          0.0000
       217         BIAXIAL          0.0000          0.0000          0.0000          0.0000          0.0000          0.0000
       218         BIAXIAL          0.0000          0.0000          0.0000          0.0000          0.0000          0.0000
       219         BIAXIAL          0.0000          0.0000          0.0000          0.0000          0.0000          0.0000
       220         BIAXIAL          0.0000          0.0000          0.0000          0.0000          0.0000          0.0000
       221         BIAXIAL          0.0000          0.0000          0.0000          0.0000          0.0000          0.0000
       222         BIAXIAL          0.0000          0.0000          0.0000          0.0000          0.0000          0.0000
       223         BIAXIAL          0.0000          0.0000          0.0000          0.0000          0.0000          0.0000
       224         BIAXIAL          0.0000          0.0000          0.0000          0.0000          0.0000          0.0000
       225         BIAXIAL          0.0000          0.0000          0.0000          0.0000          0.0000          0.0000
       226         BIAXIAL          0.0000          0.0000          0.0000          0.0000          0.0000          0.0000
       227         BIAXIAL          0.0000          0.0000          0.0000          0.0000          0.0000          0.0000
       228         BIAXIAL          0.0000          0.0000          0.0000          0.0000          0.0000          0.0000
       229         BIAXIAL          0.0000          0.0000          0.0000          0.0000          0.0000          0.0000
       230         BIAXIAL          0.0000          0.0000          0.0000          0.0000          0.0000          0.0000
       231         BIAXIAL          0.0000          0.0000          0.0000          0.0000          0.0000          0.0000
       232         BIAXIAL          0.0000          0.0000          0.0000          0.0000          0.0000          0.0000
       233         BIAXIAL          0.0000          0.0000          0.0000          0.0000          0.0000          0.0000
       449           BALSA          0.0000          0.0000          0.0000          0.0000          0.0000          0.0000
       450           BALSA          0.0000          0.0000          0.0000          0.0000          0.0000          0.0000
       451           BALSA          0.0000          0.0000          0.0000          0.0000          0.0000          0.0000
       452           BALSA          0.0000          0.0000          0.0000          0.0000          0.0000          0.0000
       453           BALSA          0.0000          0.0000          0.0000          0.0000          0.0000          0.0000
       454           BALSA          0.0000          0.0000          0.0000          0.0000          0.0000          0.0000
       455           BALSA          0.0000          0.0000          0.0000          0.0000          0.0000          0.0000
       456           BALSA          0.0000          0.0000          0.0000          0.0000          0.0000          0.0000
       457           BALSA          0.0000          0.0000          0.0000          0.0000          0.0000          0.0000
       458           BALSA          0.0000          0.0000          0.0000          0.0000          0.0000          0.0000
       459           BALSA          0.0000          0.0000          0.0000          0.0000          0.0000          0.0000
       460           BALSA          0.0000          0.0000          0.0000          0.0000          0.0000          0.0000
       461           BALSA          0.0000          0.0000          0.0000          0.0000          0.0000          0.0000
       462           BALSA          0.0000          0.0000          0.0000          0.0000          0.0000          0.0000
       463           BALSA          0.0000          0.0000          0.0000          0.0000          0.0000          0.0000
       464           BALSA          0.0000          0.0000          0.0000          0.0000          0.0000          0.0000
       465           BALSA          0.0000          0.0000          0.0000          0.0000          0.0000          0.0000
       466           BALSA          0.0000          0.0000          0.0000          0.0000          0.0000          0.0000
       682           BALSA          0.0000          0.0000          0.0000          0.0000          0.0000          0.0000
       683           BALSA          0.0000          0.0000          0.0000          0.0000          0.0000          0.0000
       684           BALSA          0.0000          0.0000          0.0000          0.0000          0.0000          0.0000
       685           BALSA          0.0000          0.0000          0.0000          0.0000          0.0000          0.0000
       686           BALSA          0.0000          0.0000          0.0000          0.0000          0.0000          0.0000
       687           BALSA          0.0000          0.0000          0.0000          0.0000          0.0000          0.0000
       688           BALSA          0.0000          0.0000          0.0000          0.0000          0.0000          0.0000
       689           BALSA          0.0000          0.0000          0.0000          0.0000          0.0000          0.0000
       690           BALSA          0.0000          0.0000          0.0000          0.0000          0.0000          0.0000
       691           BALSA          0.0000          0.0000          0.0000          0.0000          0.0000          0.0000
       692           BALSA          0.0000          0.0000          0.0000          0.0000          0.0000          0.0000
       693           BALSA          0.0000          0.0000          0.0000          0.0000          0.0000          0.0000
       694           BALSA          0.0000          0.0000          0.0000          0.0000          0.0000          0.0000
       695           BALSA          0.0000          0.0000          0.0000          0.0000          0.0000          0.0000
       696           BALSA          0.0000          0.0000          0.0000          0.0000          0.0000          0.0000
       697           BALSA          0.0000          0.0000          0.0000          0.0000          0.0000          0.0000
       698           BALSA          0.0000          0.0000          0.0000          0.0000          0.0000          0.0000
       699           BALSA          0.0000          0.0000          0.0000          0.0000          0.0000          0.0000
       915         BIAXIAL          0.0000          0.0000          0.0000          0.0000          0.0000          0.0000
       916         BIAXIAL          0.0000          0.0000          0.0000          0.0000          0.0000          0.0000
       917         BIAXIAL          0.0000          0.0000          0.0000          0.0000          0.0000          0.0000
       918         BIAXIAL          0.0000          0.0000          0.0000          0.0000          0.0000          0.0000
       919         BIAXIAL          0.0000          0.0000          0.0000          0.0000          0.0000          0.0000
       920         BIAXIAL          0.0000          0.0000          0.0000          0.0000          0.0000          0.0000
       921         BIAXIAL          0.0000          0.0000          0.0000          0.0000          0.0000          0.0000
       922         BIAXIAL          0.0000          0.0000          0.0000          0.0000          0.0000          0.0000
       923         BIAXIAL          0.0000          0.0000          0.0000          0.0000          0.0000          0.0000
       924         BIAXIAL          0.0000          0.0000          0.0000          0.0000          0.0000          0.0000
       925         BIAXIAL          0.0000          0.0000          0.0000          0.0000          0.0000          0.0000
       926         BIAXIAL          0.0000          0.0000          0.0000          0.0000          0.0000          0.0000
       927         BIAXIAL          0.0000          0.0000          0.0000          0.0000          0.0000          0.0000
       928         BIAXIAL          0.0000          0.0000          0.0000          0.0000          0.0000          0.0000
       929         BIAXIAL          0.0000          0.0000          0.0000          0.0000          0.0000          0.0000
       930         BIAXIAL          0.0000          0.0000          0.0000          0.0000          0.0000          0.0000
       931         BIAXIAL          0.0000          0.0000          0.0000          0.0000          0.0000          0.0000
       932         BIAXIAL          0.0000          0.0000          0.0000          0.0000          0.0000          0.0000
