Eta        RadialPos [m] Sigma_xx [MPa]  Sigma_yy [MPa]  Sigma_xy [MPa]  Sigma_xz [MPa]  Sigma_yz [MPa]  Sigma_zz [MPa]  
0.20690    13.1172        0.0000          0.0000          0.0000          0.0000          0.0000          0.0000          
0.24138    15.1034        0.0000          0.0000          0.0000          0.0000          0.0000          0.0000          
0.27586    17.0897        0.0000          0.0000          0.0000          0.0000          0.0000          0.0000          
0.31034    19.0759        0.0000          0.0000          0.0000          0.0000          0.0000          0.0000          
0.34483    21.0621        0.0000          0.0000          0.0000          0.0000          0.0000          0.0000          
0.37931    23.0483        0.0000          0.0000          0.0000          0.0000          0.0000          0.0000          
0.41379    25.0345        0.0000          0.0000          0.0000          0.0000          0.0000          0.0000          
0.44828    27.0207        0.0000          0.0000          0.0000          0.0000          0.0000          0.0000          
0.48276    29.0069        0.0000          0.0000          0.0000          0.0000          0.0000          0.0000          
0.51724    30.9931        0.0000          0.0000          0.0000          0.0000          0.0000          0.0000          
0.55172    32.9793        0.0000          0.0000          0.0000          0.0000          0.0000          0.0000          
0.58621    34.9655        0.0000          0.0000          0.0000          0.0000          0.0000          0.0000          
0.62069    36.9517        0.0000          0.0000          0.0000          0.0000          0.0000          0.0000          
0.65517    38.9379        0.0000          0.0000          0.0000          0.0000          0.0000          0.0000          
0.68966    40.9241        0.0000          0.0000          0.0000          0.0000          0.0000          0.0000          
0.72414    42.9103        0.0000          0.0000          0.0000          0.0000          0.0000          0.0000          
0.75862    44.8966        0.0000          0.0000          0.0000          0.0000          0.0000          0.0000          
0.79310    46.8828        0.0000          0.0000          0.0000          0.0000          0.0000          0.0000          
