**************************************************************************************************************************** 
ELEMENT_1: 
**************************************************************************************************************************** 
	 Maximum stress: 

	 	 	 	 	 	 	 	 	 Max value [MPa] Element ID 	 	 Material 
	    Sigma_xx           0.0000          1                PAINT 
	    Sigma_yy           0.0000          1                PAINT 
	    Sigma_xy           0.0000          1                PAINT 
	    Sigma_xz           0.0000          1                PAINT 
	    Sigma_yz           0.0000          1                PAINT 
	    Sigma_zz           0.0000          1                PAINT 

	 Minimum stress: 

	 	 	 	 	 	 	 	 	 Min value [MPa] Element ID 	 	 Material 
	   Sigma_xx           0.0000          1                PAINT 
	   Sigma_yy           0.0000          1                PAINT 
	   Sigma_xy           0.0000          1                PAINT 
	   Sigma_xz           0.0000          1                PAINT 
	   Sigma_yz           0.0000          1                PAINT 
	   Sigma_zz           0.0000          1                PAINT 

**************************************************************************************************************************** 
	 Element:   Material        sigma_xx [Mpa]  sigma_yy [Mpa]  sigma_xy [Mpa]  sigma_xz [Mpa]  sigma_yz [Mpa]  sigma_zz [Mpa]  
         1           PAINT          0.0000          0.0000          0.0000          0.0000          0.0000          0.0000
         2           PAINT          0.0000          0.0000          0.0000          0.0000          0.0000          0.0000
         3           PAINT          0.0000          0.0000          0.0000          0.0000          0.0000          0.0000
         4           PAINT          0.0000          0.0000          0.0000          0.0000          0.0000          0.0000
         5           PAINT          0.0000          0.0000          0.0000          0.0000          0.0000          0.0000
         6           PAINT          0.0000          0.0000          0.0000          0.0000          0.0000          0.0000
         7           PAINT          0.0000          0.0000          0.0000          0.0000          0.0000          0.0000
         8           PAINT          0.0000          0.0000          0.0000          0.0000          0.0000          0.0000
         9           PAINT          0.0000          0.0000          0.0000          0.0000          0.0000          0.0000
        10           PAINT          0.0000          0.0000          0.0000          0.0000          0.0000          0.0000
        11           PAINT          0.0000          0.0000          0.0000          0.0000          0.0000          0.0000
        12           PAINT          0.0000          0.0000          0.0000          0.0000          0.0000          0.0000
       224        TRIAXIAL          0.0000          0.0000          0.0000          0.0000          0.0000          0.0000
       225        TRIAXIAL          0.0000          0.0000          0.0000          0.0000          0.0000          0.0000
       226        TRIAXIAL          0.0000          0.0000          0.0000          0.0000          0.0000          0.0000
       227        TRIAXIAL          0.0000          0.0000          0.0000          0.0000          0.0000          0.0000
       228        TRIAXIAL          0.0000          0.0000          0.0000          0.0000          0.0000          0.0000
       229        TRIAXIAL          0.0000          0.0000          0.0000          0.0000          0.0000          0.0000
       230        TRIAXIAL          0.0000          0.0000          0.0000          0.0000          0.0000          0.0000
       231        TRIAXIAL          0.0000          0.0000          0.0000          0.0000          0.0000          0.0000
       232        TRIAXIAL          0.0000          0.0000          0.0000          0.0000          0.0000          0.0000
       233        TRIAXIAL          0.0000          0.0000          0.0000          0.0000          0.0000          0.0000
       234        TRIAXIAL          0.0000          0.0000          0.0000          0.0000          0.0000          0.0000
       235        TRIAXIAL          0.0000          0.0000          0.0000          0.0000          0.0000          0.0000
       447        TRIAXIAL          0.0000          0.0000          0.0000          0.0000          0.0000          0.0000
       448        TRIAXIAL          0.0000          0.0000          0.0000          0.0000          0.0000          0.0000
       449        TRIAXIAL          0.0000          0.0000          0.0000          0.0000          0.0000          0.0000
       450        TRIAXIAL          0.0000          0.0000          0.0000          0.0000          0.0000          0.0000
       451        TRIAXIAL          0.0000          0.0000          0.0000          0.0000          0.0000          0.0000
       452        TRIAXIAL          0.0000          0.0000          0.0000          0.0000          0.0000          0.0000
       453        TRIAXIAL          0.0000          0.0000          0.0000          0.0000          0.0000          0.0000
       454        TRIAXIAL          0.0000          0.0000          0.0000          0.0000          0.0000          0.0000
       455        TRIAXIAL          0.0000          0.0000          0.0000          0.0000          0.0000          0.0000
       456        TRIAXIAL          0.0000          0.0000          0.0000          0.0000          0.0000          0.0000
       457        TRIAXIAL          0.0000          0.0000          0.0000          0.0000          0.0000          0.0000
       458        TRIAXIAL          0.0000          0.0000          0.0000          0.0000          0.0000          0.0000
**************************************************************************************************************************** 
ELEMENT_2: 
**************************************************************************************************************************** 
	 Maximum stress: 

	 	 	 	 	 	 	 	 	 Max value [MPa] Element ID 	 	 Material 
	    Sigma_xx           0.0000         13                PAINT 
	    Sigma_yy           0.0000         13                PAINT 
	    Sigma_xy           0.0000         13                PAINT 
	    Sigma_xz           0.0000         13                PAINT 
	    Sigma_yz           0.0000         13                PAINT 
	    Sigma_zz           0.0000         13                PAINT 

	 Minimum stress: 

	 	 	 	 	 	 	 	 	 Min value [MPa] Element ID 	 	 Material 
	   Sigma_xx           0.0000         13                PAINT 
	   Sigma_yy           0.0000         13                PAINT 
	   Sigma_xy           0.0000         13                PAINT 
	   Sigma_xz           0.0000         13                PAINT 
	   Sigma_yz           0.0000         13                PAINT 
	   Sigma_zz           0.0000         13                PAINT 

**************************************************************************************************************************** 
	 Element:   Material        sigma_xx [Mpa]  sigma_yy [Mpa]  sigma_xy [Mpa]  sigma_xz [Mpa]  sigma_yz [Mpa]  sigma_zz [Mpa]  
        13           PAINT          0.0000          0.0000          0.0000          0.0000          0.0000          0.0000
        14           PAINT          0.0000          0.0000          0.0000          0.0000          0.0000          0.0000
        15           PAINT          0.0000          0.0000          0.0000          0.0000          0.0000          0.0000
        16           PAINT          0.0000          0.0000          0.0000          0.0000          0.0000          0.0000
        17           PAINT          0.0000          0.0000          0.0000          0.0000          0.0000          0.0000
        18           PAINT          0.0000          0.0000          0.0000          0.0000          0.0000          0.0000
        19           PAINT          0.0000          0.0000          0.0000          0.0000          0.0000          0.0000
        20           PAINT          0.0000          0.0000          0.0000          0.0000          0.0000          0.0000
        21           PAINT          0.0000          0.0000          0.0000          0.0000          0.0000          0.0000
        22           PAINT          0.0000          0.0000          0.0000          0.0000          0.0000          0.0000
        23           PAINT          0.0000          0.0000          0.0000          0.0000          0.0000          0.0000
        24           PAINT          0.0000          0.0000          0.0000          0.0000          0.0000          0.0000
       236        TRIAXIAL          0.0000          0.0000          0.0000          0.0000          0.0000          0.0000
       237        TRIAXIAL          0.0000          0.0000          0.0000          0.0000          0.0000          0.0000
       238        TRIAXIAL          0.0000          0.0000          0.0000          0.0000          0.0000          0.0000
       239        TRIAXIAL          0.0000          0.0000          0.0000          0.0000          0.0000          0.0000
       240        TRIAXIAL          0.0000          0.0000          0.0000          0.0000          0.0000          0.0000
       241        TRIAXIAL          0.0000          0.0000          0.0000          0.0000          0.0000          0.0000
       242        TRIAXIAL          0.0000          0.0000          0.0000          0.0000          0.0000          0.0000
       243        TRIAXIAL          0.0000          0.0000          0.0000          0.0000          0.0000          0.0000
       244        TRIAXIAL          0.0000          0.0000          0.0000          0.0000          0.0000          0.0000
       245        TRIAXIAL          0.0000          0.0000          0.0000          0.0000          0.0000          0.0000
       246        TRIAXIAL          0.0000          0.0000          0.0000          0.0000          0.0000          0.0000
       247        TRIAXIAL          0.0000          0.0000          0.0000          0.0000          0.0000          0.0000
       459        TRIAXIAL          0.0000          0.0000          0.0000          0.0000          0.0000          0.0000
       460        TRIAXIAL          0.0000          0.0000          0.0000          0.0000          0.0000          0.0000
       461        TRIAXIAL          0.0000          0.0000          0.0000          0.0000          0.0000          0.0000
       462        TRIAXIAL          0.0000          0.0000          0.0000          0.0000          0.0000          0.0000
       463        TRIAXIAL          0.0000          0.0000          0.0000          0.0000          0.0000          0.0000
       464        TRIAXIAL          0.0000          0.0000          0.0000          0.0000          0.0000          0.0000
       465        TRIAXIAL          0.0000          0.0000          0.0000          0.0000          0.0000          0.0000
       466        TRIAXIAL          0.0000          0.0000          0.0000          0.0000          0.0000          0.0000
       467        TRIAXIAL          0.0000          0.0000          0.0000          0.0000          0.0000          0.0000
       468        TRIAXIAL          0.0000          0.0000          0.0000          0.0000          0.0000          0.0000
       469        TRIAXIAL          0.0000          0.0000          0.0000          0.0000          0.0000          0.0000
       470        TRIAXIAL          0.0000          0.0000          0.0000          0.0000          0.0000          0.0000
**************************************************************************************************************************** 
ELEMENT_3: 
**************************************************************************************************************************** 
	 Maximum stress: 

	 	 	 	 	 	 	 	 	 Max value [MPa] Element ID 	 	 Material 
	    Sigma_xx           0.0000         25                PAINT 
	    Sigma_yy           0.0000         25                PAINT 
	    Sigma_xy           0.0000         25                PAINT 
	    Sigma_xz           0.0000         25                PAINT 
	    Sigma_yz           0.0000         25                PAINT 
	    Sigma_zz           0.0000         25                PAINT 

	 Minimum stress: 

	 	 	 	 	 	 	 	 	 Min value [MPa] Element ID 	 	 Material 
	   Sigma_xx           0.0000         25                PAINT 
	   Sigma_yy           0.0000         25                PAINT 
	   Sigma_xy           0.0000         25                PAINT 
	   Sigma_xz           0.0000         25                PAINT 
	   Sigma_yz           0.0000         25                PAINT 
	   Sigma_zz           0.0000         25                PAINT 

**************************************************************************************************************************** 
	 Element:   Material        sigma_xx [Mpa]  sigma_yy [Mpa]  sigma_xy [Mpa]  sigma_xz [Mpa]  sigma_yz [Mpa]  sigma_zz [Mpa]  
        25           PAINT          0.0000          0.0000          0.0000          0.0000          0.0000          0.0000
        26           PAINT          0.0000          0.0000          0.0000          0.0000          0.0000          0.0000
        27           PAINT          0.0000          0.0000          0.0000          0.0000          0.0000          0.0000
        28           PAINT          0.0000          0.0000          0.0000          0.0000          0.0000          0.0000
        29           PAINT          0.0000          0.0000          0.0000          0.0000          0.0000          0.0000
        30           PAINT          0.0000          0.0000          0.0000          0.0000          0.0000          0.0000
        31           PAINT          0.0000          0.0000          0.0000          0.0000          0.0000          0.0000
        32           PAINT          0.0000          0.0000          0.0000          0.0000          0.0000          0.0000
        33           PAINT          0.0000          0.0000          0.0000          0.0000          0.0000          0.0000
        34           PAINT          0.0000          0.0000          0.0000          0.0000          0.0000          0.0000
        35           PAINT          0.0000          0.0000          0.0000          0.0000          0.0000          0.0000
        36           PAINT          0.0000          0.0000          0.0000          0.0000          0.0000          0.0000
        37           PAINT          0.0000          0.0000          0.0000          0.0000          0.0000          0.0000
        38           PAINT          0.0000          0.0000          0.0000          0.0000          0.0000          0.0000
        39           PAINT          0.0000          0.0000          0.0000          0.0000          0.0000          0.0000
        40           PAINT          0.0000          0.0000          0.0000          0.0000          0.0000          0.0000
        41           PAINT          0.0000          0.0000          0.0000          0.0000          0.0000          0.0000
        42           PAINT          0.0000          0.0000          0.0000          0.0000          0.0000          0.0000
        43           PAINT          0.0000          0.0000          0.0000          0.0000          0.0000          0.0000
        44           PAINT          0.0000          0.0000          0.0000          0.0000          0.0000          0.0000
        45           PAINT          0.0000          0.0000          0.0000          0.0000          0.0000          0.0000
        46           PAINT          0.0000          0.0000          0.0000          0.0000          0.0000          0.0000
        47           PAINT          0.0000          0.0000          0.0000          0.0000          0.0000          0.0000
        48           PAINT          0.0000          0.0000          0.0000          0.0000          0.0000          0.0000
        49           PAINT          0.0000          0.0000          0.0000          0.0000          0.0000          0.0000
        50           PAINT          0.0000          0.0000          0.0000          0.0000          0.0000          0.0000
        51           PAINT          0.0000          0.0000          0.0000          0.0000          0.0000          0.0000
        52           PAINT          0.0000          0.0000          0.0000          0.0000          0.0000          0.0000
        53           PAINT          0.0000          0.0000          0.0000          0.0000          0.0000          0.0000
        54           PAINT          0.0000          0.0000          0.0000          0.0000          0.0000          0.0000
        55           PAINT          0.0000          0.0000          0.0000          0.0000          0.0000          0.0000
        56           PAINT          0.0000          0.0000          0.0000          0.0000          0.0000          0.0000
        57           PAINT          0.0000          0.0000          0.0000          0.0000          0.0000          0.0000
        58           PAINT          0.0000          0.0000          0.0000          0.0000          0.0000          0.0000
        59           PAINT          0.0000          0.0000          0.0000          0.0000          0.0000          0.0000
        60           PAINT          0.0000          0.0000          0.0000          0.0000          0.0000          0.0000
        61           PAINT          0.0000          0.0000          0.0000          0.0000          0.0000          0.0000
        62           PAINT          0.0000          0.0000          0.0000          0.0000          0.0000          0.0000
        63           PAINT          0.0000          0.0000          0.0000          0.0000          0.0000          0.0000
        64           PAINT          0.0000          0.0000          0.0000          0.0000          0.0000          0.0000
        65           PAINT          0.0000          0.0000          0.0000          0.0000          0.0000          0.0000
        66           PAINT          0.0000          0.0000          0.0000          0.0000          0.0000          0.0000
        67           PAINT          0.0000          0.0000          0.0000          0.0000          0.0000          0.0000
        68           PAINT          0.0000          0.0000          0.0000          0.0000          0.0000          0.0000
        69           PAINT          0.0000          0.0000          0.0000          0.0000          0.0000          0.0000
        70           PAINT          0.0000          0.0000          0.0000          0.0000          0.0000          0.0000
        71           PAINT          0.0000          0.0000          0.0000          0.0000          0.0000          0.0000
        72           PAINT          0.0000          0.0000          0.0000          0.0000          0.0000          0.0000
        73           PAINT          0.0000          0.0000          0.0000          0.0000          0.0000          0.0000
       248        TRIAXIAL          0.0000          0.0000          0.0000          0.0000          0.0000          0.0000
       249        TRIAXIAL          0.0000          0.0000          0.0000          0.0000          0.0000          0.0000
       250        TRIAXIAL          0.0000          0.0000          0.0000          0.0000          0.0000          0.0000
       251        TRIAXIAL          0.0000          0.0000          0.0000          0.0000          0.0000          0.0000
       252        TRIAXIAL          0.0000          0.0000          0.0000          0.0000          0.0000          0.0000
       253        TRIAXIAL          0.0000          0.0000          0.0000          0.0000          0.0000          0.0000
       254        TRIAXIAL          0.0000          0.0000          0.0000          0.0000          0.0000          0.0000
       255        TRIAXIAL          0.0000          0.0000          0.0000          0.0000          0.0000          0.0000
       256        TRIAXIAL          0.0000          0.0000          0.0000          0.0000          0.0000          0.0000
       257        TRIAXIAL          0.0000          0.0000          0.0000          0.0000          0.0000          0.0000
       258        TRIAXIAL          0.0000          0.0000          0.0000          0.0000          0.0000          0.0000
       259        TRIAXIAL          0.0000          0.0000          0.0000          0.0000          0.0000          0.0000
       260        TRIAXIAL          0.0000          0.0000          0.0000          0.0000          0.0000          0.0000
       261        TRIAXIAL          0.0000          0.0000          0.0000          0.0000          0.0000          0.0000
       262        TRIAXIAL          0.0000          0.0000          0.0000          0.0000          0.0000          0.0000
       263        TRIAXIAL          0.0000          0.0000          0.0000          0.0000          0.0000          0.0000
       264        TRIAXIAL          0.0000          0.0000          0.0000          0.0000          0.0000          0.0000
       265        TRIAXIAL          0.0000          0.0000          0.0000          0.0000          0.0000          0.0000
       266        TRIAXIAL          0.0000          0.0000          0.0000          0.0000          0.0000          0.0000
       267        TRIAXIAL          0.0000          0.0000          0.0000          0.0000          0.0000          0.0000
       268        TRIAXIAL          0.0000          0.0000          0.0000          0.0000          0.0000          0.0000
       269        TRIAXIAL          0.0000          0.0000          0.0000          0.0000          0.0000          0.0000
       270        TRIAXIAL          0.0000          0.0000          0.0000          0.0000          0.0000          0.0000
       271        TRIAXIAL          0.0000          0.0000          0.0000          0.0000          0.0000          0.0000
       272        TRIAXIAL          0.0000          0.0000          0.0000          0.0000          0.0000          0.0000
       273        TRIAXIAL          0.0000          0.0000          0.0000          0.0000          0.0000          0.0000
       274        TRIAXIAL          0.0000          0.0000          0.0000          0.0000          0.0000          0.0000
       275        TRIAXIAL          0.0000          0.0000          0.0000          0.0000          0.0000          0.0000
       276        TRIAXIAL          0.0000          0.0000          0.0000          0.0000          0.0000          0.0000
       277        TRIAXIAL          0.0000          0.0000          0.0000          0.0000          0.0000          0.0000
       278        TRIAXIAL          0.0000          0.0000          0.0000          0.0000          0.0000          0.0000
       279        TRIAXIAL          0.0000          0.0000          0.0000          0.0000          0.0000          0.0000
       280        TRIAXIAL          0.0000          0.0000          0.0000          0.0000          0.0000          0.0000
       281        TRIAXIAL          0.0000          0.0000          0.0000          0.0000          0.0000          0.0000
       282        TRIAXIAL          0.0000          0.0000          0.0000          0.0000          0.0000          0.0000
       283        TRIAXIAL          0.0000          0.0000          0.0000          0.0000          0.0000          0.0000
       284        TRIAXIAL          0.0000          0.0000          0.0000          0.0000          0.0000          0.0000
       285        TRIAXIAL          0.0000          0.0000          0.0000          0.0000          0.0000          0.0000
       286        TRIAXIAL          0.0000          0.0000          0.0000          0.0000          0.0000          0.0000
       287        TRIAXIAL          0.0000          0.0000          0.0000          0.0000          0.0000          0.0000
       288        TRIAXIAL          0.0000          0.0000          0.0000          0.0000          0.0000          0.0000
       289        TRIAXIAL          0.0000          0.0000          0.0000          0.0000          0.0000          0.0000
       290        TRIAXIAL          0.0000          0.0000          0.0000          0.0000          0.0000          0.0000
       291        TRIAXIAL          0.0000          0.0000          0.0000          0.0000          0.0000          0.0000
       292        TRIAXIAL          0.0000          0.0000          0.0000          0.0000          0.0000          0.0000
       293        TRIAXIAL          0.0000          0.0000          0.0000          0.0000          0.0000          0.0000
       294        TRIAXIAL          0.0000          0.0000          0.0000          0.0000          0.0000          0.0000
       295        TRIAXIAL          0.0000          0.0000          0.0000          0.0000          0.0000          0.0000
       296        TRIAXIAL          0.0000          0.0000          0.0000          0.0000          0.0000          0.0000
       471        TRIAXIAL          0.0000          0.0000          0.0000          0.0000          0.0000          0.0000
       472        TRIAXIAL          0.0000          0.0000          0.0000          0.0000          0.0000          0.0000
       473        TRIAXIAL          0.0000          0.0000          0.0000          0.0000          0.0000          0.0000
       474        TRIAXIAL          0.0000          0.0000          0.0000          0.0000          0.0000          0.0000
       475        TRIAXIAL          0.0000          0.0000          0.0000          0.0000          0.0000          0.0000
       476        TRIAXIAL          0.0000          0.0000          0.0000          0.0000          0.0000          0.0000
       477        TRIAXIAL          0.0000          0.0000          0.0000          0.0000          0.0000          0.0000
       478        TRIAXIAL          0.0000          0.0000          0.0000          0.0000          0.0000          0.0000
       479        TRIAXIAL          0.0000          0.0000          0.0000          0.0000          0.0000          0.0000
       480        TRIAXIAL          0.0000          0.0000          0.0000          0.0000          0.0000          0.0000
       481        TRIAXIAL          0.0000          0.0000          0.0000          0.0000          0.0000          0.0000
       482        TRIAXIAL          0.0000          0.0000          0.0000          0.0000          0.0000          0.0000
       483        TRIAXIAL          0.0000          0.0000          0.0000          0.0000          0.0000          0.0000
       484        TRIAXIAL          0.0000          0.0000          0.0000          0.0000          0.0000          0.0000
       485        TRIAXIAL          0.0000          0.0000          0.0000          0.0000          0.0000          0.0000
       486        TRIAXIAL          0.0000          0.0000          0.0000          0.0000          0.0000          0.0000
       487        TRIAXIAL          0.0000          0.0000          0.0000          0.0000          0.0000          0.0000
       488        TRIAXIAL          0.0000          0.0000          0.0000          0.0000          0.0000          0.0000
       489        TRIAXIAL          0.0000          0.0000          0.0000          0.0000          0.0000          0.0000
       490        TRIAXIAL          0.0000          0.0000          0.0000          0.0000          0.0000          0.0000
       491        TRIAXIAL          0.0000          0.0000          0.0000          0.0000          0.0000          0.0000
       492        TRIAXIAL          0.0000          0.0000          0.0000          0.0000          0.0000          0.0000
       493        TRIAXIAL          0.0000          0.0000          0.0000          0.0000          0.0000          0.0000
       494        TRIAXIAL          0.0000          0.0000          0.0000          0.0000          0.0000          0.0000
       495        TRIAXIAL          0.0000          0.0000          0.0000          0.0000          0.0000          0.0000
       496        TRIAXIAL          0.0000          0.0000          0.0000          0.0000          0.0000          0.0000
       497        TRIAXIAL          0.0000          0.0000          0.0000          0.0000          0.0000          0.0000
       498        TRIAXIAL          0.0000          0.0000          0.0000          0.0000          0.0000          0.0000
       499        TRIAXIAL          0.0000          0.0000          0.0000          0.0000          0.0000          0.0000
       500        TRIAXIAL          0.0000          0.0000          0.0000          0.0000          0.0000          0.0000
       501        TRIAXIAL          0.0000          0.0000          0.0000          0.0000          0.0000          0.0000
       502        TRIAXIAL          0.0000          0.0000          0.0000          0.0000          0.0000          0.0000
       503        TRIAXIAL          0.0000          0.0000          0.0000          0.0000          0.0000          0.0000
       504        TRIAXIAL          0.0000          0.0000          0.0000          0.0000          0.0000          0.0000
       505        TRIAXIAL          0.0000          0.0000          0.0000          0.0000          0.0000          0.0000
       506        TRIAXIAL          0.0000          0.0000          0.0000          0.0000          0.0000          0.0000
       507        TRIAXIAL          0.0000          0.0000          0.0000          0.0000          0.0000          0.0000
       508        TRIAXIAL          0.0000          0.0000          0.0000          0.0000          0.0000          0.0000
       509        TRIAXIAL          0.0000          0.0000          0.0000          0.0000          0.0000          0.0000
       510        TRIAXIAL          0.0000          0.0000          0.0000          0.0000          0.0000          0.0000
       511        TRIAXIAL          0.0000          0.0000          0.0000          0.0000          0.0000          0.0000
       512        TRIAXIAL          0.0000          0.0000          0.0000          0.0000          0.0000          0.0000
       513        TRIAXIAL          0.0000          0.0000          0.0000          0.0000          0.0000          0.0000
       514        TRIAXIAL          0.0000          0.0000          0.0000          0.0000          0.0000          0.0000
       515        TRIAXIAL          0.0000          0.0000          0.0000          0.0000          0.0000          0.0000
       516        TRIAXIAL          0.0000          0.0000          0.0000          0.0000          0.0000          0.0000
       517        TRIAXIAL          0.0000          0.0000          0.0000          0.0000          0.0000          0.0000
       518        TRIAXIAL          0.0000          0.0000          0.0000          0.0000          0.0000          0.0000
       519        TRIAXIAL          0.0000          0.0000          0.0000          0.0000          0.0000          0.0000
**************************************************************************************************************************** 
ELEMENT_4: 
**************************************************************************************************************************** 
	 Maximum stress: 

	 	 	 	 	 	 	 	 	 Max value [MPa] Element ID 	 	 Material 
	    Sigma_xx           0.0000         74                PAINT 
	    Sigma_yy           0.0000         74                PAINT 
	    Sigma_xy           0.0000         74                PAINT 
	    Sigma_xz           0.0000         74                PAINT 
	    Sigma_yz           0.0000         74                PAINT 
	    Sigma_zz           0.0000         74                PAINT 

	 Minimum stress: 

	 	 	 	 	 	 	 	 	 Min value [MPa] Element ID 	 	 Material 
	   Sigma_xx           0.0000         74                PAINT 
	   Sigma_yy           0.0000         74                PAINT 
	   Sigma_xy           0.0000         74                PAINT 
	   Sigma_xz           0.0000         74                PAINT 
	   Sigma_yz           0.0000         74                PAINT 
	   Sigma_zz           0.0000         74                PAINT 

**************************************************************************************************************************** 
	 Element:   Material        sigma_xx [Mpa]  sigma_yy [Mpa]  sigma_xy [Mpa]  sigma_xz [Mpa]  sigma_yz [Mpa]  sigma_zz [Mpa]  
        74           PAINT          0.0000          0.0000          0.0000          0.0000          0.0000          0.0000
        75           PAINT          0.0000          0.0000          0.0000          0.0000          0.0000          0.0000
        76           PAINT          0.0000          0.0000          0.0000          0.0000          0.0000          0.0000
        77           PAINT          0.0000          0.0000          0.0000          0.0000          0.0000          0.0000
        78           PAINT          0.0000          0.0000          0.0000          0.0000          0.0000          0.0000
        79           PAINT          0.0000          0.0000          0.0000          0.0000          0.0000          0.0000
        80           PAINT          0.0000          0.0000          0.0000          0.0000          0.0000          0.0000
        81           PAINT          0.0000          0.0000          0.0000          0.0000          0.0000          0.0000
        82           PAINT          0.0000          0.0000          0.0000          0.0000          0.0000          0.0000
        83           PAINT          0.0000          0.0000          0.0000          0.0000          0.0000          0.0000
        84           PAINT          0.0000          0.0000          0.0000          0.0000          0.0000          0.0000
        85           PAINT          0.0000          0.0000          0.0000          0.0000          0.0000          0.0000
       297        TRIAXIAL          0.0000          0.0000          0.0000          0.0000          0.0000          0.0000
       298        TRIAXIAL          0.0000          0.0000          0.0000          0.0000          0.0000          0.0000
       299        TRIAXIAL          0.0000          0.0000          0.0000          0.0000          0.0000          0.0000
       300        TRIAXIAL          0.0000          0.0000          0.0000          0.0000          0.0000          0.0000
       301        TRIAXIAL          0.0000          0.0000          0.0000          0.0000          0.0000          0.0000
       302        TRIAXIAL          0.0000          0.0000          0.0000          0.0000          0.0000          0.0000
       303        TRIAXIAL          0.0000          0.0000          0.0000          0.0000          0.0000          0.0000
       304        TRIAXIAL          0.0000          0.0000          0.0000          0.0000          0.0000          0.0000
       305        TRIAXIAL          0.0000          0.0000          0.0000          0.0000          0.0000          0.0000
       306        TRIAXIAL          0.0000          0.0000          0.0000          0.0000          0.0000          0.0000
       307        TRIAXIAL          0.0000          0.0000          0.0000          0.0000          0.0000          0.0000
       308        TRIAXIAL          0.0000          0.0000          0.0000          0.0000          0.0000          0.0000
       520        TRIAXIAL          0.0000          0.0000          0.0000          0.0000          0.0000          0.0000
       521        TRIAXIAL          0.0000          0.0000          0.0000          0.0000          0.0000          0.0000
       522        TRIAXIAL          0.0000          0.0000          0.0000          0.0000          0.0000          0.0000
       523        TRIAXIAL          0.0000          0.0000          0.0000          0.0000          0.0000          0.0000
       524        TRIAXIAL          0.0000          0.0000          0.0000          0.0000          0.0000          0.0000
       525        TRIAXIAL          0.0000          0.0000          0.0000          0.0000          0.0000          0.0000
       526        TRIAXIAL          0.0000          0.0000          0.0000          0.0000          0.0000          0.0000
       527        TRIAXIAL          0.0000          0.0000          0.0000          0.0000          0.0000          0.0000
       528        TRIAXIAL          0.0000          0.0000          0.0000          0.0000          0.0000          0.0000
       529        TRIAXIAL          0.0000          0.0000          0.0000          0.0000          0.0000          0.0000
       530        TRIAXIAL          0.0000          0.0000          0.0000          0.0000          0.0000          0.0000
       531        TRIAXIAL          0.0000          0.0000          0.0000          0.0000          0.0000          0.0000
**************************************************************************************************************************** 
ELEMENT_5: 
**************************************************************************************************************************** 
	 Maximum stress: 

	 	 	 	 	 	 	 	 	 Max value [MPa] Element ID 	 	 Material 
	    Sigma_xx           0.0000         86                PAINT 
	    Sigma_yy           0.0000         86                PAINT 
	    Sigma_xy           0.0000         86                PAINT 
	    Sigma_xz           0.0000         86                PAINT 
	    Sigma_yz           0.0000         86                PAINT 
	    Sigma_zz           0.0000         86                PAINT 

	 Minimum stress: 

	 	 	 	 	 	 	 	 	 Min value [MPa] Element ID 	 	 Material 
	   Sigma_xx           0.0000         86                PAINT 
	   Sigma_yy           0.0000         86                PAINT 
	   Sigma_xy           0.0000         86                PAINT 
	   Sigma_xz           0.0000         86                PAINT 
	   Sigma_yz           0.0000         86                PAINT 
	   Sigma_zz           0.0000         86                PAINT 

**************************************************************************************************************************** 
	 Element:   Material        sigma_xx [Mpa]  sigma_yy [Mpa]  sigma_xy [Mpa]  sigma_xz [Mpa]  sigma_yz [Mpa]  sigma_zz [Mpa]  
        86           PAINT          0.0000          0.0000          0.0000          0.0000          0.0000          0.0000
        87           PAINT          0.0000          0.0000          0.0000          0.0000          0.0000          0.0000
        88           PAINT          0.0000          0.0000          0.0000          0.0000          0.0000          0.0000
        89           PAINT          0.0000          0.0000          0.0000          0.0000          0.0000          0.0000
        90           PAINT          0.0000          0.0000          0.0000          0.0000          0.0000          0.0000
        91           PAINT          0.0000          0.0000          0.0000          0.0000          0.0000          0.0000
        92           PAINT          0.0000          0.0000          0.0000          0.0000          0.0000          0.0000
        93           PAINT          0.0000          0.0000          0.0000          0.0000          0.0000          0.0000
        94           PAINT          0.0000          0.0000          0.0000          0.0000          0.0000          0.0000
        95           PAINT          0.0000          0.0000          0.0000          0.0000          0.0000          0.0000
        96           PAINT          0.0000          0.0000          0.0000          0.0000          0.0000          0.0000
        97           PAINT          0.0000          0.0000          0.0000          0.0000          0.0000          0.0000
        98           PAINT          0.0000          0.0000          0.0000          0.0000          0.0000          0.0000
        99           PAINT          0.0000          0.0000          0.0000          0.0000          0.0000          0.0000
       100           PAINT          0.0000          0.0000          0.0000          0.0000          0.0000          0.0000
       309        TRIAXIAL          0.0000          0.0000          0.0000          0.0000          0.0000          0.0000
       310        TRIAXIAL          0.0000          0.0000          0.0000          0.0000          0.0000          0.0000
       311        TRIAXIAL          0.0000          0.0000          0.0000          0.0000          0.0000          0.0000
       312        TRIAXIAL          0.0000          0.0000          0.0000          0.0000          0.0000          0.0000
       313        TRIAXIAL          0.0000          0.0000          0.0000          0.0000          0.0000          0.0000
       314        TRIAXIAL          0.0000          0.0000          0.0000          0.0000          0.0000          0.0000
       315        TRIAXIAL          0.0000          0.0000          0.0000          0.0000          0.0000          0.0000
       316        TRIAXIAL          0.0000          0.0000          0.0000          0.0000          0.0000          0.0000
       317        TRIAXIAL          0.0000          0.0000          0.0000          0.0000          0.0000          0.0000
       318        TRIAXIAL          0.0000          0.0000          0.0000          0.0000          0.0000          0.0000
       319        TRIAXIAL          0.0000          0.0000          0.0000          0.0000          0.0000          0.0000
       320        TRIAXIAL          0.0000          0.0000          0.0000          0.0000          0.0000          0.0000
       321        TRIAXIAL          0.0000          0.0000          0.0000          0.0000          0.0000          0.0000
       322        TRIAXIAL          0.0000          0.0000          0.0000          0.0000          0.0000          0.0000
       323        TRIAXIAL          0.0000          0.0000          0.0000          0.0000          0.0000          0.0000
       532        TRIAXIAL          0.0000          0.0000          0.0000          0.0000          0.0000          0.0000
       533        TRIAXIAL          0.0000          0.0000          0.0000          0.0000          0.0000          0.0000
       534        TRIAXIAL          0.0000          0.0000          0.0000          0.0000          0.0000          0.0000
       535        TRIAXIAL          0.0000          0.0000          0.0000          0.0000          0.0000          0.0000
       536        TRIAXIAL          0.0000          0.0000          0.0000          0.0000          0.0000          0.0000
       537        TRIAXIAL          0.0000          0.0000          0.0000          0.0000          0.0000          0.0000
       538        TRIAXIAL          0.0000          0.0000          0.0000          0.0000          0.0000          0.0000
       539        TRIAXIAL          0.0000          0.0000          0.0000          0.0000          0.0000          0.0000
       540        TRIAXIAL          0.0000          0.0000          0.0000          0.0000          0.0000          0.0000
       541        TRIAXIAL          0.0000          0.0000          0.0000          0.0000          0.0000          0.0000
       542        TRIAXIAL          0.0000          0.0000          0.0000          0.0000          0.0000          0.0000
       543        TRIAXIAL          0.0000          0.0000          0.0000          0.0000          0.0000          0.0000
       544        TRIAXIAL          0.0000          0.0000          0.0000          0.0000          0.0000          0.0000
       545        TRIAXIAL          0.0000          0.0000          0.0000          0.0000          0.0000          0.0000
       546        TRIAXIAL          0.0000          0.0000          0.0000          0.0000          0.0000          0.0000
**************************************************************************************************************************** 
ELEMENT_6: 
**************************************************************************************************************************** 
	 Maximum stress: 

	 	 	 	 	 	 	 	 	 Max value [MPa] Element ID 	 	 Material 
	    Sigma_xx           0.0000        101                PAINT 
	    Sigma_yy           0.0000        101                PAINT 
	    Sigma_xy           0.0000        101                PAINT 
	    Sigma_xz           0.0000        101                PAINT 
	    Sigma_yz           0.0000        101                PAINT 
	    Sigma_zz           0.0000        101                PAINT 

	 Minimum stress: 

	 	 	 	 	 	 	 	 	 Min value [MPa] Element ID 	 	 Material 
	   Sigma_xx           0.0000        101                PAINT 
	   Sigma_yy           0.0000        101                PAINT 
	   Sigma_xy           0.0000        101                PAINT 
	   Sigma_xz           0.0000        101                PAINT 
	   Sigma_yz           0.0000        101                PAINT 
	   Sigma_zz           0.0000        101                PAINT 

**************************************************************************************************************************** 
	 Element:   Material        sigma_xx [Mpa]  sigma_yy [Mpa]  sigma_xy [Mpa]  sigma_xz [Mpa]  sigma_yz [Mpa]  sigma_zz [Mpa]  
       101           PAINT          0.0000          0.0000          0.0000          0.0000          0.0000          0.0000
       102           PAINT          0.0000          0.0000          0.0000          0.0000          0.0000          0.0000
       103           PAINT          0.0000          0.0000          0.0000          0.0000          0.0000          0.0000
       104           PAINT          0.0000          0.0000          0.0000          0.0000          0.0000          0.0000
       105           PAINT          0.0000          0.0000          0.0000          0.0000          0.0000          0.0000
       106           PAINT          0.0000          0.0000          0.0000          0.0000          0.0000          0.0000
       107           PAINT          0.0000          0.0000          0.0000          0.0000          0.0000          0.0000
       108           PAINT          0.0000          0.0000          0.0000          0.0000          0.0000          0.0000
       109           PAINT          0.0000          0.0000          0.0000          0.0000          0.0000          0.0000
       110           PAINT          0.0000          0.0000          0.0000          0.0000          0.0000          0.0000
       111           PAINT          0.0000          0.0000          0.0000          0.0000          0.0000          0.0000
       112           PAINT          0.0000          0.0000          0.0000          0.0000          0.0000          0.0000
       113           PAINT          0.0000          0.0000          0.0000          0.0000          0.0000          0.0000
       114           PAINT          0.0000          0.0000          0.0000          0.0000          0.0000          0.0000
       324        TRIAXIAL          0.0000          0.0000          0.0000          0.0000          0.0000          0.0000
       325        TRIAXIAL          0.0000          0.0000          0.0000          0.0000          0.0000          0.0000
       326        TRIAXIAL          0.0000          0.0000          0.0000          0.0000          0.0000          0.0000
       327        TRIAXIAL          0.0000          0.0000          0.0000          0.0000          0.0000          0.0000
       328        TRIAXIAL          0.0000          0.0000          0.0000          0.0000          0.0000          0.0000
       329        TRIAXIAL          0.0000          0.0000          0.0000          0.0000          0.0000          0.0000
       330        TRIAXIAL          0.0000          0.0000          0.0000          0.0000          0.0000          0.0000
       331        TRIAXIAL          0.0000          0.0000          0.0000          0.0000          0.0000          0.0000
       332        TRIAXIAL          0.0000          0.0000          0.0000          0.0000          0.0000          0.0000
       333        TRIAXIAL          0.0000          0.0000          0.0000          0.0000          0.0000          0.0000
       334        TRIAXIAL          0.0000          0.0000          0.0000          0.0000          0.0000          0.0000
       335        TRIAXIAL          0.0000          0.0000          0.0000          0.0000          0.0000          0.0000
       336        TRIAXIAL          0.0000          0.0000          0.0000          0.0000          0.0000          0.0000
       337        TRIAXIAL          0.0000          0.0000          0.0000          0.0000          0.0000          0.0000
       547        TRIAXIAL          0.0000          0.0000          0.0000          0.0000          0.0000          0.0000
       548        TRIAXIAL          0.0000          0.0000          0.0000          0.0000          0.0000          0.0000
       549        TRIAXIAL          0.0000          0.0000          0.0000          0.0000          0.0000          0.0000
       550        TRIAXIAL          0.0000          0.0000          0.0000          0.0000          0.0000          0.0000
       551        TRIAXIAL          0.0000          0.0000          0.0000          0.0000          0.0000          0.0000
       552        TRIAXIAL          0.0000          0.0000          0.0000          0.0000          0.0000          0.0000
       553        TRIAXIAL          0.0000          0.0000          0.0000          0.0000          0.0000          0.0000
       554        TRIAXIAL          0.0000          0.0000          0.0000          0.0000          0.0000          0.0000
       555        TRIAXIAL          0.0000          0.0000          0.0000          0.0000          0.0000          0.0000
       556        TRIAXIAL          0.0000          0.0000          0.0000          0.0000          0.0000          0.0000
       557        TRIAXIAL          0.0000          0.0000          0.0000          0.0000          0.0000          0.0000
       558        TRIAXIAL          0.0000          0.0000          0.0000          0.0000          0.0000          0.0000
       559        TRIAXIAL          0.0000          0.0000          0.0000          0.0000          0.0000          0.0000
       560        TRIAXIAL          0.0000          0.0000          0.0000          0.0000          0.0000          0.0000
**************************************************************************************************************************** 
ELEMENT_7: 
**************************************************************************************************************************** 
	 Maximum stress: 

	 	 	 	 	 	 	 	 	 Max value [MPa] Element ID 	 	 Material 
	    Sigma_xx           0.0000        115                PAINT 
	    Sigma_yy           0.0000        115                PAINT 
	    Sigma_xy           0.0000        115                PAINT 
	    Sigma_xz           0.0000        115                PAINT 
	    Sigma_yz           0.0000        115                PAINT 
	    Sigma_zz           0.0000        115                PAINT 

	 Minimum stress: 

	 	 	 	 	 	 	 	 	 Min value [MPa] Element ID 	 	 Material 
	   Sigma_xx           0.0000        115                PAINT 
	   Sigma_yy           0.0000        115                PAINT 
	   Sigma_xy           0.0000        115                PAINT 
	   Sigma_xz           0.0000        115                PAINT 
	   Sigma_yz           0.0000        115                PAINT 
	   Sigma_zz           0.0000        115                PAINT 

**************************************************************************************************************************** 
	 Element:   Material        sigma_xx [Mpa]  sigma_yy [Mpa]  sigma_xy [Mpa]  sigma_xz [Mpa]  sigma_yz [Mpa]  sigma_zz [Mpa]  
       115           PAINT          0.0000          0.0000          0.0000          0.0000          0.0000          0.0000
       116           PAINT          0.0000          0.0000          0.0000          0.0000          0.0000          0.0000
       117           PAINT          0.0000          0.0000          0.0000          0.0000          0.0000          0.0000
       118           PAINT          0.0000          0.0000          0.0000          0.0000          0.0000          0.0000
       119           PAINT          0.0000          0.0000          0.0000          0.0000          0.0000          0.0000
       120           PAINT          0.0000          0.0000          0.0000          0.0000          0.0000          0.0000
       121           PAINT          0.0000          0.0000          0.0000          0.0000          0.0000          0.0000
       122           PAINT          0.0000          0.0000          0.0000          0.0000          0.0000          0.0000
       123           PAINT          0.0000          0.0000          0.0000          0.0000          0.0000          0.0000
       124           PAINT          0.0000          0.0000          0.0000          0.0000          0.0000          0.0000
       125           PAINT          0.0000          0.0000          0.0000          0.0000          0.0000          0.0000
       126           PAINT          0.0000          0.0000          0.0000          0.0000          0.0000          0.0000
       338        TRIAXIAL          0.0000          0.0000          0.0000          0.0000          0.0000          0.0000
       339        TRIAXIAL          0.0000          0.0000          0.0000          0.0000          0.0000          0.0000
       340        TRIAXIAL          0.0000          0.0000          0.0000          0.0000          0.0000          0.0000
       341        TRIAXIAL          0.0000          0.0000          0.0000          0.0000          0.0000          0.0000
       342        TRIAXIAL          0.0000          0.0000          0.0000          0.0000          0.0000          0.0000
       343        TRIAXIAL          0.0000          0.0000          0.0000          0.0000          0.0000          0.0000
       344        TRIAXIAL          0.0000          0.0000          0.0000          0.0000          0.0000          0.0000
       345        TRIAXIAL          0.0000          0.0000          0.0000          0.0000          0.0000          0.0000
       346        TRIAXIAL          0.0000          0.0000          0.0000          0.0000          0.0000          0.0000
       347        TRIAXIAL          0.0000          0.0000          0.0000          0.0000          0.0000          0.0000
       348        TRIAXIAL          0.0000          0.0000          0.0000          0.0000          0.0000          0.0000
       349        TRIAXIAL          0.0000          0.0000          0.0000          0.0000          0.0000          0.0000
       561        TRIAXIAL          0.0000          0.0000          0.0000          0.0000          0.0000          0.0000
       562        TRIAXIAL          0.0000          0.0000          0.0000          0.0000          0.0000          0.0000
       563        TRIAXIAL          0.0000          0.0000          0.0000          0.0000          0.0000          0.0000
       564        TRIAXIAL          0.0000          0.0000          0.0000          0.0000          0.0000          0.0000
       565        TRIAXIAL          0.0000          0.0000          0.0000          0.0000          0.0000          0.0000
       566        TRIAXIAL          0.0000          0.0000          0.0000          0.0000          0.0000          0.0000
       567        TRIAXIAL          0.0000          0.0000          0.0000          0.0000          0.0000          0.0000
       568        TRIAXIAL          0.0000          0.0000          0.0000          0.0000          0.0000          0.0000
       569        TRIAXIAL          0.0000          0.0000          0.0000          0.0000          0.0000          0.0000
       570        TRIAXIAL          0.0000          0.0000          0.0000          0.0000          0.0000          0.0000
       571        TRIAXIAL          0.0000          0.0000          0.0000          0.0000          0.0000          0.0000
       572        TRIAXIAL          0.0000          0.0000          0.0000          0.0000          0.0000          0.0000
**************************************************************************************************************************** 
ELEMENT_8: 
**************************************************************************************************************************** 
	 Maximum stress: 

	 	 	 	 	 	 	 	 	 Max value [MPa] Element ID 	 	 Material 
	    Sigma_xx           0.0000        127                PAINT 
	    Sigma_yy           0.0000        127                PAINT 
	    Sigma_xy           0.0000        127                PAINT 
	    Sigma_xz           0.0000        127                PAINT 
	    Sigma_yz           0.0000        127                PAINT 
	    Sigma_zz           0.0000        127                PAINT 

	 Minimum stress: 

	 	 	 	 	 	 	 	 	 Min value [MPa] Element ID 	 	 Material 
	   Sigma_xx           0.0000        127                PAINT 
	   Sigma_yy           0.0000        127                PAINT 
	   Sigma_xy           0.0000        127                PAINT 
	   Sigma_xz           0.0000        127                PAINT 
	   Sigma_yz           0.0000        127                PAINT 
	   Sigma_zz           0.0000        127                PAINT 

**************************************************************************************************************************** 
	 Element:   Material        sigma_xx [Mpa]  sigma_yy [Mpa]  sigma_xy [Mpa]  sigma_xz [Mpa]  sigma_yz [Mpa]  sigma_zz [Mpa]  
       127           PAINT          0.0000          0.0000          0.0000          0.0000          0.0000          0.0000
       128           PAINT          0.0000          0.0000          0.0000          0.0000          0.0000          0.0000
       129           PAINT          0.0000          0.0000          0.0000          0.0000          0.0000          0.0000
       130           PAINT          0.0000          0.0000          0.0000          0.0000          0.0000          0.0000
       131           PAINT          0.0000          0.0000          0.0000          0.0000          0.0000          0.0000
       132           PAINT          0.0000          0.0000          0.0000          0.0000          0.0000          0.0000
       133           PAINT          0.0000          0.0000          0.0000          0.0000          0.0000          0.0000
       134           PAINT          0.0000          0.0000          0.0000          0.0000          0.0000          0.0000
       135           PAINT          0.0000          0.0000          0.0000          0.0000          0.0000          0.0000
       136           PAINT          0.0000          0.0000          0.0000          0.0000          0.0000          0.0000
       137           PAINT          0.0000          0.0000          0.0000          0.0000          0.0000          0.0000
       138           PAINT          0.0000          0.0000          0.0000          0.0000          0.0000          0.0000
       139           PAINT          0.0000          0.0000          0.0000          0.0000          0.0000          0.0000
       140           PAINT          0.0000          0.0000          0.0000          0.0000          0.0000          0.0000
       141           PAINT          0.0000          0.0000          0.0000          0.0000          0.0000          0.0000
       142           PAINT          0.0000          0.0000          0.0000          0.0000          0.0000          0.0000
       143           PAINT          0.0000          0.0000          0.0000          0.0000          0.0000          0.0000
       144           PAINT          0.0000          0.0000          0.0000          0.0000          0.0000          0.0000
       145           PAINT          0.0000          0.0000          0.0000          0.0000          0.0000          0.0000
       146           PAINT          0.0000          0.0000          0.0000          0.0000          0.0000          0.0000
       147           PAINT          0.0000          0.0000          0.0000          0.0000          0.0000          0.0000
       148           PAINT          0.0000          0.0000          0.0000          0.0000          0.0000          0.0000
       149           PAINT          0.0000          0.0000          0.0000          0.0000          0.0000          0.0000
       150           PAINT          0.0000          0.0000          0.0000          0.0000          0.0000          0.0000
       151           PAINT          0.0000          0.0000          0.0000          0.0000          0.0000          0.0000
       152           PAINT          0.0000          0.0000          0.0000          0.0000          0.0000          0.0000
       153           PAINT          0.0000          0.0000          0.0000          0.0000          0.0000          0.0000
       154           PAINT          0.0000          0.0000          0.0000          0.0000          0.0000          0.0000
       155           PAINT          0.0000          0.0000          0.0000          0.0000          0.0000          0.0000
       156           PAINT          0.0000          0.0000          0.0000          0.0000          0.0000          0.0000
       157           PAINT          0.0000          0.0000          0.0000          0.0000          0.0000          0.0000
       158           PAINT          0.0000          0.0000          0.0000          0.0000          0.0000          0.0000
       159           PAINT          0.0000          0.0000          0.0000          0.0000          0.0000          0.0000
       160           PAINT          0.0000          0.0000          0.0000          0.0000          0.0000          0.0000
       161           PAINT          0.0000          0.0000          0.0000          0.0000          0.0000          0.0000
       162           PAINT          0.0000          0.0000          0.0000          0.0000          0.0000          0.0000
       163           PAINT          0.0000          0.0000          0.0000          0.0000          0.0000          0.0000
       164           PAINT          0.0000          0.0000          0.0000          0.0000          0.0000          0.0000
       165           PAINT          0.0000          0.0000          0.0000          0.0000          0.0000          0.0000
       166           PAINT          0.0000          0.0000          0.0000          0.0000          0.0000          0.0000
       167           PAINT          0.0000          0.0000          0.0000          0.0000          0.0000          0.0000
       168           PAINT          0.0000          0.0000          0.0000          0.0000          0.0000          0.0000
       169           PAINT          0.0000          0.0000          0.0000          0.0000          0.0000          0.0000
       170           PAINT          0.0000          0.0000          0.0000          0.0000          0.0000          0.0000
       171           PAINT          0.0000          0.0000          0.0000          0.0000          0.0000          0.0000
       172           PAINT          0.0000          0.0000          0.0000          0.0000          0.0000          0.0000
       173           PAINT          0.0000          0.0000          0.0000          0.0000          0.0000          0.0000
       174           PAINT          0.0000          0.0000          0.0000          0.0000          0.0000          0.0000
       175           PAINT          0.0000          0.0000          0.0000          0.0000          0.0000          0.0000
       350        TRIAXIAL          0.0000          0.0000          0.0000          0.0000          0.0000          0.0000
       351        TRIAXIAL          0.0000          0.0000          0.0000          0.0000          0.0000          0.0000
       352        TRIAXIAL          0.0000          0.0000          0.0000          0.0000          0.0000          0.0000
       353        TRIAXIAL          0.0000          0.0000          0.0000          0.0000          0.0000          0.0000
       354        TRIAXIAL          0.0000          0.0000          0.0000          0.0000          0.0000          0.0000
       355        TRIAXIAL          0.0000          0.0000          0.0000          0.0000          0.0000          0.0000
       356        TRIAXIAL          0.0000          0.0000          0.0000          0.0000          0.0000          0.0000
       357        TRIAXIAL          0.0000          0.0000          0.0000          0.0000          0.0000          0.0000
       358        TRIAXIAL          0.0000          0.0000          0.0000          0.0000          0.0000          0.0000
       359        TRIAXIAL          0.0000          0.0000          0.0000          0.0000          0.0000          0.0000
       360        TRIAXIAL          0.0000          0.0000          0.0000          0.0000          0.0000          0.0000
       361        TRIAXIAL          0.0000          0.0000          0.0000          0.0000          0.0000          0.0000
       362        TRIAXIAL          0.0000          0.0000          0.0000          0.0000          0.0000          0.0000
       363        TRIAXIAL          0.0000          0.0000          0.0000          0.0000          0.0000          0.0000
       364        TRIAXIAL          0.0000          0.0000          0.0000          0.0000          0.0000          0.0000
       365        TRIAXIAL          0.0000          0.0000          0.0000          0.0000          0.0000          0.0000
       366        TRIAXIAL          0.0000          0.0000          0.0000          0.0000          0.0000          0.0000
       367        TRIAXIAL          0.0000          0.0000          0.0000          0.0000          0.0000          0.0000
       368        TRIAXIAL          0.0000          0.0000          0.0000          0.0000          0.0000          0.0000
       369        TRIAXIAL          0.0000          0.0000          0.0000          0.0000          0.0000          0.0000
       370        TRIAXIAL          0.0000          0.0000          0.0000          0.0000          0.0000          0.0000
       371        TRIAXIAL          0.0000          0.0000          0.0000          0.0000          0.0000          0.0000
       372        TRIAXIAL          0.0000          0.0000          0.0000          0.0000          0.0000          0.0000
       373        TRIAXIAL          0.0000          0.0000          0.0000          0.0000          0.0000          0.0000
       374        TRIAXIAL          0.0000          0.0000          0.0000          0.0000          0.0000          0.0000
       375        TRIAXIAL          0.0000          0.0000          0.0000          0.0000          0.0000          0.0000
       376        TRIAXIAL          0.0000          0.0000          0.0000          0.0000          0.0000          0.0000
       377        TRIAXIAL          0.0000          0.0000          0.0000          0.0000          0.0000          0.0000
       378        TRIAXIAL          0.0000          0.0000          0.0000          0.0000          0.0000          0.0000
       379        TRIAXIAL          0.0000          0.0000          0.0000          0.0000          0.0000          0.0000
       380        TRIAXIAL          0.0000          0.0000          0.0000          0.0000          0.0000          0.0000
       381        TRIAXIAL          0.0000          0.0000          0.0000          0.0000          0.0000          0.0000
       382        TRIAXIAL          0.0000          0.0000          0.0000          0.0000          0.0000          0.0000
       383        TRIAXIAL          0.0000          0.0000          0.0000          0.0000          0.0000          0.0000
       384        TRIAXIAL          0.0000          0.0000          0.0000          0.0000          0.0000          0.0000
       385        TRIAXIAL          0.0000          0.0000          0.0000          0.0000          0.0000          0.0000
       386        TRIAXIAL          0.0000          0.0000          0.0000          0.0000          0.0000          0.0000
       387        TRIAXIAL          0.0000          0.0000          0.0000          0.0000          0.0000          0.0000
       388        TRIAXIAL          0.0000          0.0000          0.0000          0.0000          0.0000          0.0000
       389        TRIAXIAL          0.0000          0.0000          0.0000          0.0000          0.0000          0.0000
       390        TRIAXIAL          0.0000          0.0000          0.0000          0.0000          0.0000          0.0000
       391        TRIAXIAL          0.0000          0.0000          0.0000          0.0000          0.0000          0.0000
       392        TRIAXIAL          0.0000          0.0000          0.0000          0.0000          0.0000          0.0000
       393        TRIAXIAL          0.0000          0.0000          0.0000          0.0000          0.0000          0.0000
       394        TRIAXIAL          0.0000          0.0000          0.0000          0.0000          0.0000          0.0000
       395        TRIAXIAL          0.0000          0.0000          0.0000          0.0000          0.0000          0.0000
       396        TRIAXIAL          0.0000          0.0000          0.0000          0.0000          0.0000          0.0000
       397        TRIAXIAL          0.0000          0.0000          0.0000          0.0000          0.0000          0.0000
       398        TRIAXIAL          0.0000          0.0000          0.0000          0.0000          0.0000          0.0000
       573        TRIAXIAL          0.0000          0.0000          0.0000          0.0000          0.0000          0.0000
       574        TRIAXIAL          0.0000          0.0000          0.0000          0.0000          0.0000          0.0000
       575        TRIAXIAL          0.0000          0.0000          0.0000          0.0000          0.0000          0.0000
       576        TRIAXIAL          0.0000          0.0000          0.0000          0.0000          0.0000          0.0000
       577        TRIAXIAL          0.0000          0.0000          0.0000          0.0000          0.0000          0.0000
       578        TRIAXIAL          0.0000          0.0000          0.0000          0.0000          0.0000          0.0000
       579        TRIAXIAL          0.0000          0.0000          0.0000          0.0000          0.0000          0.0000
       580        TRIAXIAL          0.0000          0.0000          0.0000          0.0000          0.0000          0.0000
       581        TRIAXIAL          0.0000          0.0000          0.0000          0.0000          0.0000          0.0000
       582        TRIAXIAL          0.0000          0.0000          0.0000          0.0000          0.0000          0.0000
       583        TRIAXIAL          0.0000          0.0000          0.0000          0.0000          0.0000          0.0000
       584        TRIAXIAL          0.0000          0.0000          0.0000          0.0000          0.0000          0.0000
       585        TRIAXIAL          0.0000          0.0000          0.0000          0.0000          0.0000          0.0000
       586        TRIAXIAL          0.0000          0.0000          0.0000          0.0000          0.0000          0.0000
       587        TRIAXIAL          0.0000          0.0000          0.0000          0.0000          0.0000          0.0000
       588        TRIAXIAL          0.0000          0.0000          0.0000          0.0000          0.0000          0.0000
       589        TRIAXIAL          0.0000          0.0000          0.0000          0.0000          0.0000          0.0000
       590        TRIAXIAL          0.0000          0.0000          0.0000          0.0000          0.0000          0.0000
       591        TRIAXIAL          0.0000          0.0000          0.0000          0.0000          0.0000          0.0000
       592        TRIAXIAL          0.0000          0.0000          0.0000          0.0000          0.0000          0.0000
       593        TRIAXIAL          0.0000          0.0000          0.0000          0.0000          0.0000          0.0000
       594        TRIAXIAL          0.0000          0.0000          0.0000          0.0000          0.0000          0.0000
       595        TRIAXIAL          0.0000          0.0000          0.0000          0.0000          0.0000          0.0000
       596        TRIAXIAL          0.0000          0.0000          0.0000          0.0000          0.0000          0.0000
       597        TRIAXIAL          0.0000          0.0000          0.0000          0.0000          0.0000          0.0000
       598        TRIAXIAL          0.0000          0.0000          0.0000          0.0000          0.0000          0.0000
       599        TRIAXIAL          0.0000          0.0000          0.0000          0.0000          0.0000          0.0000
       600        TRIAXIAL          0.0000          0.0000          0.0000          0.0000          0.0000          0.0000
       601        TRIAXIAL          0.0000          0.0000          0.0000          0.0000          0.0000          0.0000
       602        TRIAXIAL          0.0000          0.0000          0.0000          0.0000          0.0000          0.0000
       603        TRIAXIAL          0.0000          0.0000          0.0000          0.0000          0.0000          0.0000
       604        TRIAXIAL          0.0000          0.0000          0.0000          0.0000          0.0000          0.0000
       605        TRIAXIAL          0.0000          0.0000          0.0000          0.0000          0.0000          0.0000
       606        TRIAXIAL          0.0000          0.0000          0.0000          0.0000          0.0000          0.0000
       607        TRIAXIAL          0.0000          0.0000          0.0000          0.0000          0.0000          0.0000
       608        TRIAXIAL          0.0000          0.0000          0.0000          0.0000          0.0000          0.0000
       609        TRIAXIAL          0.0000          0.0000          0.0000          0.0000          0.0000          0.0000
       610        TRIAXIAL          0.0000          0.0000          0.0000          0.0000          0.0000          0.0000
       611        TRIAXIAL          0.0000          0.0000          0.0000          0.0000          0.0000          0.0000
       612        TRIAXIAL          0.0000          0.0000          0.0000          0.0000          0.0000          0.0000
       613        TRIAXIAL          0.0000          0.0000          0.0000          0.0000          0.0000          0.0000
       614        TRIAXIAL          0.0000          0.0000          0.0000          0.0000          0.0000          0.0000
       615        TRIAXIAL          0.0000          0.0000          0.0000          0.0000          0.0000          0.0000
       616        TRIAXIAL          0.0000          0.0000          0.0000          0.0000          0.0000          0.0000
       617        TRIAXIAL          0.0000          0.0000          0.0000          0.0000          0.0000          0.0000
       618        TRIAXIAL          0.0000          0.0000          0.0000          0.0000          0.0000          0.0000
       619        TRIAXIAL          0.0000          0.0000          0.0000          0.0000          0.0000          0.0000
       620        TRIAXIAL          0.0000          0.0000          0.0000          0.0000          0.0000          0.0000
       621        TRIAXIAL          0.0000          0.0000          0.0000          0.0000          0.0000          0.0000
**************************************************************************************************************************** 
ELEMENT_9: 
**************************************************************************************************************************** 
	 Maximum stress: 

	 	 	 	 	 	 	 	 	 Max value [MPa] Element ID 	 	 Material 
	    Sigma_xx           0.0000        176                PAINT 
	    Sigma_yy           0.0000        176                PAINT 
	    Sigma_xy           0.0000        176                PAINT 
	    Sigma_xz           0.0000        176                PAINT 
	    Sigma_yz           0.0000        176                PAINT 
	    Sigma_zz           0.0000        176                PAINT 

	 Minimum stress: 

	 	 	 	 	 	 	 	 	 Min value [MPa] Element ID 	 	 Material 
	   Sigma_xx           0.0000        176                PAINT 
	   Sigma_yy           0.0000        176                PAINT 
	   Sigma_xy           0.0000        176                PAINT 
	   Sigma_xz           0.0000        176                PAINT 
	   Sigma_yz           0.0000        176                PAINT 
	   Sigma_zz           0.0000        176                PAINT 

**************************************************************************************************************************** 
	 Element:   Material        sigma_xx [Mpa]  sigma_yy [Mpa]  sigma_xy [Mpa]  sigma_xz [Mpa]  sigma_yz [Mpa]  sigma_zz [Mpa]  
       176           PAINT          0.0000          0.0000          0.0000          0.0000          0.0000          0.0000
       177           PAINT          0.0000          0.0000          0.0000          0.0000          0.0000          0.0000
       178           PAINT          0.0000          0.0000          0.0000          0.0000          0.0000          0.0000
       179           PAINT          0.0000          0.0000          0.0000          0.0000          0.0000          0.0000
       180           PAINT          0.0000          0.0000          0.0000          0.0000          0.0000          0.0000
       181           PAINT          0.0000          0.0000          0.0000          0.0000          0.0000          0.0000
       182           PAINT          0.0000          0.0000          0.0000          0.0000          0.0000          0.0000
       183           PAINT          0.0000          0.0000          0.0000          0.0000          0.0000          0.0000
       184           PAINT          0.0000          0.0000          0.0000          0.0000          0.0000          0.0000
       185           PAINT          0.0000          0.0000          0.0000          0.0000          0.0000          0.0000
       186           PAINT          0.0000          0.0000          0.0000          0.0000          0.0000          0.0000
       187           PAINT          0.0000          0.0000          0.0000          0.0000          0.0000          0.0000
       399        TRIAXIAL          0.0000          0.0000          0.0000          0.0000          0.0000          0.0000
       400        TRIAXIAL          0.0000          0.0000          0.0000          0.0000          0.0000          0.0000
       401        TRIAXIAL          0.0000          0.0000          0.0000          0.0000          0.0000          0.0000
       402        TRIAXIAL          0.0000          0.0000          0.0000          0.0000          0.0000          0.0000
       403        TRIAXIAL          0.0000          0.0000          0.0000          0.0000          0.0000          0.0000
       404        TRIAXIAL          0.0000          0.0000          0.0000          0.0000          0.0000          0.0000
       405        TRIAXIAL          0.0000          0.0000          0.0000          0.0000          0.0000          0.0000
       406        TRIAXIAL          0.0000          0.0000          0.0000          0.0000          0.0000          0.0000
       407        TRIAXIAL          0.0000          0.0000          0.0000          0.0000          0.0000          0.0000
       408        TRIAXIAL          0.0000          0.0000          0.0000          0.0000          0.0000          0.0000
       409        TRIAXIAL          0.0000          0.0000          0.0000          0.0000          0.0000          0.0000
       410        TRIAXIAL          0.0000          0.0000          0.0000          0.0000          0.0000          0.0000
       622        TRIAXIAL          0.0000          0.0000          0.0000          0.0000          0.0000          0.0000
       623        TRIAXIAL          0.0000          0.0000          0.0000          0.0000          0.0000          0.0000
       624        TRIAXIAL          0.0000          0.0000          0.0000          0.0000          0.0000          0.0000
       625        TRIAXIAL          0.0000          0.0000          0.0000          0.0000          0.0000          0.0000
       626        TRIAXIAL          0.0000          0.0000          0.0000          0.0000          0.0000          0.0000
       627        TRIAXIAL          0.0000          0.0000          0.0000          0.0000          0.0000          0.0000
       628        TRIAXIAL          0.0000          0.0000          0.0000          0.0000          0.0000          0.0000
       629        TRIAXIAL          0.0000          0.0000          0.0000          0.0000          0.0000          0.0000
       630        TRIAXIAL          0.0000          0.0000          0.0000          0.0000          0.0000          0.0000
       631        TRIAXIAL          0.0000          0.0000          0.0000          0.0000          0.0000          0.0000
       632        TRIAXIAL          0.0000          0.0000          0.0000          0.0000          0.0000          0.0000
       633        TRIAXIAL          0.0000          0.0000          0.0000          0.0000          0.0000          0.0000
**************************************************************************************************************************** 
ELEMENT_10: 
**************************************************************************************************************************** 
	 Maximum stress: 

	 	 	 	 	 	 	 	 	 Max value [MPa] Element ID 	 	 Material 
	    Sigma_xx           0.0000        188                PAINT 
	    Sigma_yy           0.0000        188                PAINT 
	    Sigma_xy           0.0000        188                PAINT 
	    Sigma_xz           0.0000        188                PAINT 
	    Sigma_yz           0.0000        188                PAINT 
	    Sigma_zz           0.0000        188                PAINT 

	 Minimum stress: 

	 	 	 	 	 	 	 	 	 Min value [MPa] Element ID 	 	 Material 
	   Sigma_xx           0.0000        188                PAINT 
	   Sigma_yy           0.0000        188                PAINT 
	   Sigma_xy           0.0000        188                PAINT 
	   Sigma_xz           0.0000        188                PAINT 
	   Sigma_yz           0.0000        188                PAINT 
	   Sigma_zz           0.0000        188                PAINT 

**************************************************************************************************************************** 
	 Element:   Material        sigma_xx [Mpa]  sigma_yy [Mpa]  sigma_xy [Mpa]  sigma_xz [Mpa]  sigma_yz [Mpa]  sigma_zz [Mpa]  
       188           PAINT          0.0000          0.0000          0.0000          0.0000          0.0000          0.0000
       189           PAINT          0.0000          0.0000          0.0000          0.0000          0.0000          0.0000
       190           PAINT          0.0000          0.0000          0.0000          0.0000          0.0000          0.0000
       191           PAINT          0.0000          0.0000          0.0000          0.0000          0.0000          0.0000
       192           PAINT          0.0000          0.0000          0.0000          0.0000          0.0000          0.0000
       193           PAINT          0.0000          0.0000          0.0000          0.0000          0.0000          0.0000
       194           PAINT          0.0000          0.0000          0.0000          0.0000          0.0000          0.0000
       195           PAINT          0.0000          0.0000          0.0000          0.0000          0.0000          0.0000
       196           PAINT          0.0000          0.0000          0.0000          0.0000          0.0000          0.0000
       197           PAINT          0.0000          0.0000          0.0000          0.0000          0.0000          0.0000
       198           PAINT          0.0000          0.0000          0.0000          0.0000          0.0000          0.0000
       199           PAINT          0.0000          0.0000          0.0000          0.0000          0.0000          0.0000
       411        TRIAXIAL          0.0000          0.0000          0.0000          0.0000          0.0000          0.0000
       412        TRIAXIAL          0.0000          0.0000          0.0000          0.0000          0.0000          0.0000
       413        TRIAXIAL          0.0000          0.0000          0.0000          0.0000          0.0000          0.0000
       414        TRIAXIAL          0.0000          0.0000          0.0000          0.0000          0.0000          0.0000
       415        TRIAXIAL          0.0000          0.0000          0.0000          0.0000          0.0000          0.0000
       416        TRIAXIAL          0.0000          0.0000          0.0000          0.0000          0.0000          0.0000
       417        TRIAXIAL          0.0000          0.0000          0.0000          0.0000          0.0000          0.0000
       418        TRIAXIAL          0.0000          0.0000          0.0000          0.0000          0.0000          0.0000
       419        TRIAXIAL          0.0000          0.0000          0.0000          0.0000          0.0000          0.0000
       420        TRIAXIAL          0.0000          0.0000          0.0000          0.0000          0.0000          0.0000
       421        TRIAXIAL          0.0000          0.0000          0.0000          0.0000          0.0000          0.0000
       422        TRIAXIAL          0.0000          0.0000          0.0000          0.0000          0.0000          0.0000
       634        TRIAXIAL          0.0000          0.0000          0.0000          0.0000          0.0000          0.0000
       635        TRIAXIAL          0.0000          0.0000          0.0000          0.0000          0.0000          0.0000
       636        TRIAXIAL          0.0000          0.0000          0.0000          0.0000          0.0000          0.0000
       637        TRIAXIAL          0.0000          0.0000          0.0000          0.0000          0.0000          0.0000
       638        TRIAXIAL          0.0000          0.0000          0.0000          0.0000          0.0000          0.0000
       639        TRIAXIAL          0.0000          0.0000          0.0000          0.0000          0.0000          0.0000
       640        TRIAXIAL          0.0000          0.0000          0.0000          0.0000          0.0000          0.0000
       641        TRIAXIAL          0.0000          0.0000          0.0000          0.0000          0.0000          0.0000
       642        TRIAXIAL          0.0000          0.0000          0.0000          0.0000          0.0000          0.0000
       643        TRIAXIAL          0.0000          0.0000          0.0000          0.0000          0.0000          0.0000
       644        TRIAXIAL          0.0000          0.0000          0.0000          0.0000          0.0000          0.0000
       645        TRIAXIAL          0.0000          0.0000          0.0000          0.0000          0.0000          0.0000
