Eta        RadialPos [m] Sigma_xx [MPa]  Sigma_yy [MPa]  Sigma_xy [MPa]  Sigma_xz [MPa]  Sigma_yz [MPa]  Sigma_zz [MPa]  
0.20690    14.3586        0.0000          0.0000          0.0000          0.0000          0.0000          0.0000          
0.24138    16.5517        0.0000          0.0000          0.0000          0.0000          0.0000          0.0000          
0.27586    18.7448        0.0000          0.0000          0.0000          0.0000          0.0000          0.0000          
0.31034    20.9379        0.0000          0.0000          0.0000          0.0000          0.0000          0.0000          
0.34483    23.1310        0.0000          0.0000          0.0000          0.0000          0.0000          0.0000          
0.37931    25.3241        0.0000          0.0000          0.0000          0.0000          0.0000          0.0000          
0.41379    27.5172        0.0000          0.0000          0.0000          0.0000          0.0000          0.0000          
0.44828    29.7103        0.0000          0.0000          0.0000          0.0000          0.0000          0.0000          
0.48276    31.9034        0.0000          0.0000          0.0000          0.0000          0.0000          0.0000          
0.51724    34.0966        0.0000          0.0000          0.0000          0.0000          0.0000          0.0000          
0.55172    36.2897        0.0000          0.0000          0.0000          0.0000          0.0000          0.0000          
0.58621    38.4828        0.0000          0.0000          0.0000          0.0000          0.0000          0.0000          
0.62069    40.6759        0.0000          0.0000          0.0000          0.0000          0.0000          0.0000          
0.65517    42.8690        0.0000          0.0000          0.0000          0.0000          0.0000          0.0000          
0.68966    45.0621        0.0000          0.0000          0.0000          0.0000          0.0000          0.0000          
0.72414    47.2552        0.0000          0.0000          0.0000          0.0000          0.0000          0.0000          
0.75862    49.4483        0.0000          0.0000          0.0000          0.0000          0.0000          0.0000          
0.79310    51.6414        0.0000          0.0000          0.0000          0.0000          0.0000          0.0000          
