**************************************************************************************************************************** 
ELEMENT_1: 
**************************************************************************************************************************** 
	 Maximum stress: 

	 	 	 	 	 	 	 	 	 Max value [MPa] Element ID 	 	 Material 
	    Sigma_xx           0.0000          1                PAINT 
	    Sigma_yy           0.0000          1                PAINT 
	    Sigma_xy           0.0000          1                PAINT 
	    Sigma_xz           0.0000          1                PAINT 
	    Sigma_yz           0.0000          1                PAINT 
	    Sigma_zz           0.0000          1                PAINT 

	 Minimum stress: 

	 	 	 	 	 	 	 	 	 Min value [MPa] Element ID 	 	 Material 
	   Sigma_xx           0.0000          1                PAINT 
	   Sigma_yy           0.0000          1                PAINT 
	   Sigma_xy           0.0000          1                PAINT 
	   Sigma_xz           0.0000          1                PAINT 
	   Sigma_yz           0.0000          1                PAINT 
	   Sigma_zz           0.0000          1                PAINT 

**************************************************************************************************************************** 
	 Element:   Material        sigma_xx [Mpa]  sigma_yy [Mpa]  sigma_xy [Mpa]  sigma_xz [Mpa]  sigma_yz [Mpa]  sigma_zz [Mpa]  
         1           PAINT          0.0000          0.0000          0.0000          0.0000          0.0000          0.0000
         2           PAINT          0.0000          0.0000          0.0000          0.0000          0.0000          0.0000
         3           PAINT          0.0000          0.0000          0.0000          0.0000          0.0000          0.0000
         4           PAINT          0.0000          0.0000          0.0000          0.0000          0.0000          0.0000
         5           PAINT          0.0000          0.0000          0.0000          0.0000          0.0000          0.0000
         6           PAINT          0.0000          0.0000          0.0000          0.0000          0.0000          0.0000
         7           PAINT          0.0000          0.0000          0.0000          0.0000          0.0000          0.0000
         8           PAINT          0.0000          0.0000          0.0000          0.0000          0.0000          0.0000
         9           PAINT          0.0000          0.0000          0.0000          0.0000          0.0000          0.0000
        10           PAINT          0.0000          0.0000          0.0000          0.0000          0.0000          0.0000
        11           PAINT          0.0000          0.0000          0.0000          0.0000          0.0000          0.0000
        12           PAINT          0.0000          0.0000          0.0000          0.0000          0.0000          0.0000
        13           PAINT          0.0000          0.0000          0.0000          0.0000          0.0000          0.0000
        14           PAINT          0.0000          0.0000          0.0000          0.0000          0.0000          0.0000
        15           PAINT          0.0000          0.0000          0.0000          0.0000          0.0000          0.0000
        16           PAINT          0.0000          0.0000          0.0000          0.0000          0.0000          0.0000
        17           PAINT          0.0000          0.0000          0.0000          0.0000          0.0000          0.0000
        18           PAINT          0.0000          0.0000          0.0000          0.0000          0.0000          0.0000
        19           PAINT          0.0000          0.0000          0.0000          0.0000          0.0000          0.0000
        20           PAINT          0.0000          0.0000          0.0000          0.0000          0.0000          0.0000
        21           PAINT          0.0000          0.0000          0.0000          0.0000          0.0000          0.0000
        22           PAINT          0.0000          0.0000          0.0000          0.0000          0.0000          0.0000
        23           PAINT          0.0000          0.0000          0.0000          0.0000          0.0000          0.0000
       309        TRIAXIAL          0.0000          0.0000          0.0000          0.0000          0.0000          0.0000
       310        TRIAXIAL          0.0000          0.0000          0.0000          0.0000          0.0000          0.0000
       311        TRIAXIAL          0.0000          0.0000          0.0000          0.0000          0.0000          0.0000
       312        TRIAXIAL          0.0000          0.0000          0.0000          0.0000          0.0000          0.0000
       313        TRIAXIAL          0.0000          0.0000          0.0000          0.0000          0.0000          0.0000
       314        TRIAXIAL          0.0000          0.0000          0.0000          0.0000          0.0000          0.0000
       315        TRIAXIAL          0.0000          0.0000          0.0000          0.0000          0.0000          0.0000
       316        TRIAXIAL          0.0000          0.0000          0.0000          0.0000          0.0000          0.0000
       317        TRIAXIAL          0.0000          0.0000          0.0000          0.0000          0.0000          0.0000
       318        TRIAXIAL          0.0000          0.0000          0.0000          0.0000          0.0000          0.0000
       319        TRIAXIAL          0.0000          0.0000          0.0000          0.0000          0.0000          0.0000
       320        TRIAXIAL          0.0000          0.0000          0.0000          0.0000          0.0000          0.0000
       321        TRIAXIAL          0.0000          0.0000          0.0000          0.0000          0.0000          0.0000
       322        TRIAXIAL          0.0000          0.0000          0.0000          0.0000          0.0000          0.0000
       323        TRIAXIAL          0.0000          0.0000          0.0000          0.0000          0.0000          0.0000
       324        TRIAXIAL          0.0000          0.0000          0.0000          0.0000          0.0000          0.0000
       325        TRIAXIAL          0.0000          0.0000          0.0000          0.0000          0.0000          0.0000
       326        TRIAXIAL          0.0000          0.0000          0.0000          0.0000          0.0000          0.0000
       327        TRIAXIAL          0.0000          0.0000          0.0000          0.0000          0.0000          0.0000
       328        TRIAXIAL          0.0000          0.0000          0.0000          0.0000          0.0000          0.0000
       329        TRIAXIAL          0.0000          0.0000          0.0000          0.0000          0.0000          0.0000
       330        TRIAXIAL          0.0000          0.0000          0.0000          0.0000          0.0000          0.0000
       331        TRIAXIAL          0.0000          0.0000          0.0000          0.0000          0.0000          0.0000
       617        TRIAXIAL          0.0000          0.0000          0.0000          0.0000          0.0000          0.0000
       618        TRIAXIAL          0.0000          0.0000          0.0000          0.0000          0.0000          0.0000
       619        TRIAXIAL          0.0000          0.0000          0.0000          0.0000          0.0000          0.0000
       620        TRIAXIAL          0.0000          0.0000          0.0000          0.0000          0.0000          0.0000
       621        TRIAXIAL          0.0000          0.0000          0.0000          0.0000          0.0000          0.0000
       622        TRIAXIAL          0.0000          0.0000          0.0000          0.0000          0.0000          0.0000
       623        TRIAXIAL          0.0000          0.0000          0.0000          0.0000          0.0000          0.0000
       624        TRIAXIAL          0.0000          0.0000          0.0000          0.0000          0.0000          0.0000
       625        TRIAXIAL          0.0000          0.0000          0.0000          0.0000          0.0000          0.0000
       626        TRIAXIAL          0.0000          0.0000          0.0000          0.0000          0.0000          0.0000
       627        TRIAXIAL          0.0000          0.0000          0.0000          0.0000          0.0000          0.0000
       628        TRIAXIAL          0.0000          0.0000          0.0000          0.0000          0.0000          0.0000
       629        TRIAXIAL          0.0000          0.0000          0.0000          0.0000          0.0000          0.0000
       630        TRIAXIAL          0.0000          0.0000          0.0000          0.0000          0.0000          0.0000
       631        TRIAXIAL          0.0000          0.0000          0.0000          0.0000          0.0000          0.0000
       632        TRIAXIAL          0.0000          0.0000          0.0000          0.0000          0.0000          0.0000
       633        TRIAXIAL          0.0000          0.0000          0.0000          0.0000          0.0000          0.0000
       634        TRIAXIAL          0.0000          0.0000          0.0000          0.0000          0.0000          0.0000
       635        TRIAXIAL          0.0000          0.0000          0.0000          0.0000          0.0000          0.0000
       636        TRIAXIAL          0.0000          0.0000          0.0000          0.0000          0.0000          0.0000
       637        TRIAXIAL          0.0000          0.0000          0.0000          0.0000          0.0000          0.0000
       638        TRIAXIAL          0.0000          0.0000          0.0000          0.0000          0.0000          0.0000
       639        TRIAXIAL          0.0000          0.0000          0.0000          0.0000          0.0000          0.0000
**************************************************************************************************************************** 
ELEMENT_2: 
**************************************************************************************************************************** 
	 Maximum stress: 

	 	 	 	 	 	 	 	 	 Max value [MPa] Element ID 	 	 Material 
	    Sigma_xx           0.0000         24                PAINT 
	    Sigma_yy           0.0000         24                PAINT 
	    Sigma_xy           0.0000         24                PAINT 
	    Sigma_xz           0.0000         24                PAINT 
	    Sigma_yz           0.0000         24                PAINT 
	    Sigma_zz           0.0000         24                PAINT 

	 Minimum stress: 

	 	 	 	 	 	 	 	 	 Min value [MPa] Element ID 	 	 Material 
	   Sigma_xx           0.0000         24                PAINT 
	   Sigma_yy           0.0000         24                PAINT 
	   Sigma_xy           0.0000         24                PAINT 
	   Sigma_xz           0.0000         24                PAINT 
	   Sigma_yz           0.0000         24                PAINT 
	   Sigma_zz           0.0000         24                PAINT 

**************************************************************************************************************************** 
	 Element:   Material        sigma_xx [Mpa]  sigma_yy [Mpa]  sigma_xy [Mpa]  sigma_xz [Mpa]  sigma_yz [Mpa]  sigma_zz [Mpa]  
        24           PAINT          0.0000          0.0000          0.0000          0.0000          0.0000          0.0000
        25           PAINT          0.0000          0.0000          0.0000          0.0000          0.0000          0.0000
        26           PAINT          0.0000          0.0000          0.0000          0.0000          0.0000          0.0000
        27           PAINT          0.0000          0.0000          0.0000          0.0000          0.0000          0.0000
        28           PAINT          0.0000          0.0000          0.0000          0.0000          0.0000          0.0000
        29           PAINT          0.0000          0.0000          0.0000          0.0000          0.0000          0.0000
        30           PAINT          0.0000          0.0000          0.0000          0.0000          0.0000          0.0000
        31           PAINT          0.0000          0.0000          0.0000          0.0000          0.0000          0.0000
        32           PAINT          0.0000          0.0000          0.0000          0.0000          0.0000          0.0000
        33           PAINT          0.0000          0.0000          0.0000          0.0000          0.0000          0.0000
       332        TRIAXIAL          0.0000          0.0000          0.0000          0.0000          0.0000          0.0000
       333        TRIAXIAL          0.0000          0.0000          0.0000          0.0000          0.0000          0.0000
       334        TRIAXIAL          0.0000          0.0000          0.0000          0.0000          0.0000          0.0000
       335        TRIAXIAL          0.0000          0.0000          0.0000          0.0000          0.0000          0.0000
       336        TRIAXIAL          0.0000          0.0000          0.0000          0.0000          0.0000          0.0000
       337        TRIAXIAL          0.0000          0.0000          0.0000          0.0000          0.0000          0.0000
       338        TRIAXIAL          0.0000          0.0000          0.0000          0.0000          0.0000          0.0000
       339        TRIAXIAL          0.0000          0.0000          0.0000          0.0000          0.0000          0.0000
       340        TRIAXIAL          0.0000          0.0000          0.0000          0.0000          0.0000          0.0000
       341        TRIAXIAL          0.0000          0.0000          0.0000          0.0000          0.0000          0.0000
       640        TRIAXIAL          0.0000          0.0000          0.0000          0.0000          0.0000          0.0000
       641        TRIAXIAL          0.0000          0.0000          0.0000          0.0000          0.0000          0.0000
       642        TRIAXIAL          0.0000          0.0000          0.0000          0.0000          0.0000          0.0000
       643        TRIAXIAL          0.0000          0.0000          0.0000          0.0000          0.0000          0.0000
       644        TRIAXIAL          0.0000          0.0000          0.0000          0.0000          0.0000          0.0000
       645        TRIAXIAL          0.0000          0.0000          0.0000          0.0000          0.0000          0.0000
       646        TRIAXIAL          0.0000          0.0000          0.0000          0.0000          0.0000          0.0000
       647        TRIAXIAL          0.0000          0.0000          0.0000          0.0000          0.0000          0.0000
       648        TRIAXIAL          0.0000          0.0000          0.0000          0.0000          0.0000          0.0000
       649        TRIAXIAL          0.0000          0.0000          0.0000          0.0000          0.0000          0.0000
**************************************************************************************************************************** 
ELEMENT_3: 
**************************************************************************************************************************** 
	 Maximum stress: 

	 	 	 	 	 	 	 	 	 Max value [MPa] Element ID 	 	 Material 
	    Sigma_xx           0.0000         34                PAINT 
	    Sigma_yy           0.0000         34                PAINT 
	    Sigma_xy           0.0000         34                PAINT 
	    Sigma_xz           0.0000         34                PAINT 
	    Sigma_yz           0.0000         34                PAINT 
	    Sigma_zz           0.0000         34                PAINT 

	 Minimum stress: 

	 	 	 	 	 	 	 	 	 Min value [MPa] Element ID 	 	 Material 
	   Sigma_xx           0.0000         34                PAINT 
	   Sigma_yy           0.0000         34                PAINT 
	   Sigma_xy           0.0000         34                PAINT 
	   Sigma_xz           0.0000         34                PAINT 
	   Sigma_yz           0.0000         34                PAINT 
	   Sigma_zz           0.0000         34                PAINT 

**************************************************************************************************************************** 
	 Element:   Material        sigma_xx [Mpa]  sigma_yy [Mpa]  sigma_xy [Mpa]  sigma_xz [Mpa]  sigma_yz [Mpa]  sigma_zz [Mpa]  
        34           PAINT          0.0000          0.0000          0.0000          0.0000          0.0000          0.0000
        35           PAINT          0.0000          0.0000          0.0000          0.0000          0.0000          0.0000
        36           PAINT          0.0000          0.0000          0.0000          0.0000          0.0000          0.0000
        37           PAINT          0.0000          0.0000          0.0000          0.0000          0.0000          0.0000
        38           PAINT          0.0000          0.0000          0.0000          0.0000          0.0000          0.0000
        39           PAINT          0.0000          0.0000          0.0000          0.0000          0.0000          0.0000
        40           PAINT          0.0000          0.0000          0.0000          0.0000          0.0000          0.0000
        41           PAINT          0.0000          0.0000          0.0000          0.0000          0.0000          0.0000
        42           PAINT          0.0000          0.0000          0.0000          0.0000          0.0000          0.0000
        43           PAINT          0.0000          0.0000          0.0000          0.0000          0.0000          0.0000
        44           PAINT          0.0000          0.0000          0.0000          0.0000          0.0000          0.0000
        45           PAINT          0.0000          0.0000          0.0000          0.0000          0.0000          0.0000
        46           PAINT          0.0000          0.0000          0.0000          0.0000          0.0000          0.0000
        47           PAINT          0.0000          0.0000          0.0000          0.0000          0.0000          0.0000
        48           PAINT          0.0000          0.0000          0.0000          0.0000          0.0000          0.0000
        49           PAINT          0.0000          0.0000          0.0000          0.0000          0.0000          0.0000
        50           PAINT          0.0000          0.0000          0.0000          0.0000          0.0000          0.0000
        51           PAINT          0.0000          0.0000          0.0000          0.0000          0.0000          0.0000
        52           PAINT          0.0000          0.0000          0.0000          0.0000          0.0000          0.0000
        53           PAINT          0.0000          0.0000          0.0000          0.0000          0.0000          0.0000
        54           PAINT          0.0000          0.0000          0.0000          0.0000          0.0000          0.0000
        55           PAINT          0.0000          0.0000          0.0000          0.0000          0.0000          0.0000
        56           PAINT          0.0000          0.0000          0.0000          0.0000          0.0000          0.0000
        57           PAINT          0.0000          0.0000          0.0000          0.0000          0.0000          0.0000
        58           PAINT          0.0000          0.0000          0.0000          0.0000          0.0000          0.0000
        59           PAINT          0.0000          0.0000          0.0000          0.0000          0.0000          0.0000
        60           PAINT          0.0000          0.0000          0.0000          0.0000          0.0000          0.0000
        61           PAINT          0.0000          0.0000          0.0000          0.0000          0.0000          0.0000
        62           PAINT          0.0000          0.0000          0.0000          0.0000          0.0000          0.0000
        63           PAINT          0.0000          0.0000          0.0000          0.0000          0.0000          0.0000
        64           PAINT          0.0000          0.0000          0.0000          0.0000          0.0000          0.0000
        65           PAINT          0.0000          0.0000          0.0000          0.0000          0.0000          0.0000
        66           PAINT          0.0000          0.0000          0.0000          0.0000          0.0000          0.0000
       342        TRIAXIAL          0.0000          0.0000          0.0000          0.0000          0.0000          0.0000
       343        TRIAXIAL          0.0000          0.0000          0.0000          0.0000          0.0000          0.0000
       344        TRIAXIAL          0.0000          0.0000          0.0000          0.0000          0.0000          0.0000
       345        TRIAXIAL          0.0000          0.0000          0.0000          0.0000          0.0000          0.0000
       346        TRIAXIAL          0.0000          0.0000          0.0000          0.0000          0.0000          0.0000
       347        TRIAXIAL          0.0000          0.0000          0.0000          0.0000          0.0000          0.0000
       348        TRIAXIAL          0.0000          0.0000          0.0000          0.0000          0.0000          0.0000
       349        TRIAXIAL          0.0000          0.0000          0.0000          0.0000          0.0000          0.0000
       350        TRIAXIAL          0.0000          0.0000          0.0000          0.0000          0.0000          0.0000
       351        TRIAXIAL          0.0000          0.0000          0.0000          0.0000          0.0000          0.0000
       352        TRIAXIAL          0.0000          0.0000          0.0000          0.0000          0.0000          0.0000
       353        TRIAXIAL          0.0000          0.0000          0.0000          0.0000          0.0000          0.0000
       354        TRIAXIAL          0.0000          0.0000          0.0000          0.0000          0.0000          0.0000
       355        TRIAXIAL          0.0000          0.0000          0.0000          0.0000          0.0000          0.0000
       356        TRIAXIAL          0.0000          0.0000          0.0000          0.0000          0.0000          0.0000
       357        TRIAXIAL          0.0000          0.0000          0.0000          0.0000          0.0000          0.0000
       358        TRIAXIAL          0.0000          0.0000          0.0000          0.0000          0.0000          0.0000
       359        TRIAXIAL          0.0000          0.0000          0.0000          0.0000          0.0000          0.0000
       360        TRIAXIAL          0.0000          0.0000          0.0000          0.0000          0.0000          0.0000
       361        TRIAXIAL          0.0000          0.0000          0.0000          0.0000          0.0000          0.0000
       362        TRIAXIAL          0.0000          0.0000          0.0000          0.0000          0.0000          0.0000
       363        TRIAXIAL          0.0000          0.0000          0.0000          0.0000          0.0000          0.0000
       364        TRIAXIAL          0.0000          0.0000          0.0000          0.0000          0.0000          0.0000
       365        TRIAXIAL          0.0000          0.0000          0.0000          0.0000          0.0000          0.0000
       366        TRIAXIAL          0.0000          0.0000          0.0000          0.0000          0.0000          0.0000
       367        TRIAXIAL          0.0000          0.0000          0.0000          0.0000          0.0000          0.0000
       368        TRIAXIAL          0.0000          0.0000          0.0000          0.0000          0.0000          0.0000
       369        TRIAXIAL          0.0000          0.0000          0.0000          0.0000          0.0000          0.0000
       370        TRIAXIAL          0.0000          0.0000          0.0000          0.0000          0.0000          0.0000
       371        TRIAXIAL          0.0000          0.0000          0.0000          0.0000          0.0000          0.0000
       372        TRIAXIAL          0.0000          0.0000          0.0000          0.0000          0.0000          0.0000
       373        TRIAXIAL          0.0000          0.0000          0.0000          0.0000          0.0000          0.0000
       374        TRIAXIAL          0.0000          0.0000          0.0000          0.0000          0.0000          0.0000
       650        TRIAXIAL          0.0000          0.0000          0.0000          0.0000          0.0000          0.0000
       651        TRIAXIAL          0.0000          0.0000          0.0000          0.0000          0.0000          0.0000
       652        TRIAXIAL          0.0000          0.0000          0.0000          0.0000          0.0000          0.0000
       653        TRIAXIAL          0.0000          0.0000          0.0000          0.0000          0.0000          0.0000
       654        TRIAXIAL          0.0000          0.0000          0.0000          0.0000          0.0000          0.0000
       655        TRIAXIAL          0.0000          0.0000          0.0000          0.0000          0.0000          0.0000
       656        TRIAXIAL          0.0000          0.0000          0.0000          0.0000          0.0000          0.0000
       657        TRIAXIAL          0.0000          0.0000          0.0000          0.0000          0.0000          0.0000
       658        TRIAXIAL          0.0000          0.0000          0.0000          0.0000          0.0000          0.0000
       659        TRIAXIAL          0.0000          0.0000          0.0000          0.0000          0.0000          0.0000
       660        TRIAXIAL          0.0000          0.0000          0.0000          0.0000          0.0000          0.0000
       661        TRIAXIAL          0.0000          0.0000          0.0000          0.0000          0.0000          0.0000
       662        TRIAXIAL          0.0000          0.0000          0.0000          0.0000          0.0000          0.0000
       663        TRIAXIAL          0.0000          0.0000          0.0000          0.0000          0.0000          0.0000
       664        TRIAXIAL          0.0000          0.0000          0.0000          0.0000          0.0000          0.0000
       665        TRIAXIAL          0.0000          0.0000          0.0000          0.0000          0.0000          0.0000
       666        TRIAXIAL          0.0000          0.0000          0.0000          0.0000          0.0000          0.0000
       667        TRIAXIAL          0.0000          0.0000          0.0000          0.0000          0.0000          0.0000
       668        TRIAXIAL          0.0000          0.0000          0.0000          0.0000          0.0000          0.0000
       669        TRIAXIAL          0.0000          0.0000          0.0000          0.0000          0.0000          0.0000
       670        TRIAXIAL          0.0000          0.0000          0.0000          0.0000          0.0000          0.0000
       671        TRIAXIAL          0.0000          0.0000          0.0000          0.0000          0.0000          0.0000
       672        TRIAXIAL          0.0000          0.0000          0.0000          0.0000          0.0000          0.0000
       673        TRIAXIAL          0.0000          0.0000          0.0000          0.0000          0.0000          0.0000
       674        TRIAXIAL          0.0000          0.0000          0.0000          0.0000          0.0000          0.0000
       675        TRIAXIAL          0.0000          0.0000          0.0000          0.0000          0.0000          0.0000
       676        TRIAXIAL          0.0000          0.0000          0.0000          0.0000          0.0000          0.0000
       677        TRIAXIAL          0.0000          0.0000          0.0000          0.0000          0.0000          0.0000
       678        TRIAXIAL          0.0000          0.0000          0.0000          0.0000          0.0000          0.0000
       679        TRIAXIAL          0.0000          0.0000          0.0000          0.0000          0.0000          0.0000
       680        TRIAXIAL          0.0000          0.0000          0.0000          0.0000          0.0000          0.0000
       681        TRIAXIAL          0.0000          0.0000          0.0000          0.0000          0.0000          0.0000
       682        TRIAXIAL          0.0000          0.0000          0.0000          0.0000          0.0000          0.0000
**************************************************************************************************************************** 
ELEMENT_4: 
**************************************************************************************************************************** 
	 Maximum stress: 

	 	 	 	 	 	 	 	 	 Max value [MPa] Element ID 	 	 Material 
	    Sigma_xx           0.0000         67                PAINT 
	    Sigma_yy           0.0000         67                PAINT 
	    Sigma_xy           0.0000         67                PAINT 
	    Sigma_xz           0.0000         67                PAINT 
	    Sigma_yz           0.0000         67                PAINT 
	    Sigma_zz           0.0000         67                PAINT 

	 Minimum stress: 

	 	 	 	 	 	 	 	 	 Min value [MPa] Element ID 	 	 Material 
	   Sigma_xx           0.0000         67                PAINT 
	   Sigma_yy           0.0000         67                PAINT 
	   Sigma_xy           0.0000         67                PAINT 
	   Sigma_xz           0.0000         67                PAINT 
	   Sigma_yz           0.0000         67                PAINT 
	   Sigma_zz           0.0000         67                PAINT 

**************************************************************************************************************************** 
	 Element:   Material        sigma_xx [Mpa]  sigma_yy [Mpa]  sigma_xy [Mpa]  sigma_xz [Mpa]  sigma_yz [Mpa]  sigma_zz [Mpa]  
        67           PAINT          0.0000          0.0000          0.0000          0.0000          0.0000          0.0000
        68           PAINT          0.0000          0.0000          0.0000          0.0000          0.0000          0.0000
        69           PAINT          0.0000          0.0000          0.0000          0.0000          0.0000          0.0000
        70           PAINT          0.0000          0.0000          0.0000          0.0000          0.0000          0.0000
        71           PAINT          0.0000          0.0000          0.0000          0.0000          0.0000          0.0000
        72           PAINT          0.0000          0.0000          0.0000          0.0000          0.0000          0.0000
        73           PAINT          0.0000          0.0000          0.0000          0.0000          0.0000          0.0000
        74           PAINT          0.0000          0.0000          0.0000          0.0000          0.0000          0.0000
        75           PAINT          0.0000          0.0000          0.0000          0.0000          0.0000          0.0000
       375        TRIAXIAL          0.0000          0.0000          0.0000          0.0000          0.0000          0.0000
       376        TRIAXIAL          0.0000          0.0000          0.0000          0.0000          0.0000          0.0000
       377        TRIAXIAL          0.0000          0.0000          0.0000          0.0000          0.0000          0.0000
       378        TRIAXIAL          0.0000          0.0000          0.0000          0.0000          0.0000          0.0000
       379        TRIAXIAL          0.0000          0.0000          0.0000          0.0000          0.0000          0.0000
       380        TRIAXIAL          0.0000          0.0000          0.0000          0.0000          0.0000          0.0000
       381        TRIAXIAL          0.0000          0.0000          0.0000          0.0000          0.0000          0.0000
       382        TRIAXIAL          0.0000          0.0000          0.0000          0.0000          0.0000          0.0000
       383        TRIAXIAL          0.0000          0.0000          0.0000          0.0000          0.0000          0.0000
       683        TRIAXIAL          0.0000          0.0000          0.0000          0.0000          0.0000          0.0000
       684        TRIAXIAL          0.0000          0.0000          0.0000          0.0000          0.0000          0.0000
       685        TRIAXIAL          0.0000          0.0000          0.0000          0.0000          0.0000          0.0000
       686        TRIAXIAL          0.0000          0.0000          0.0000          0.0000          0.0000          0.0000
       687        TRIAXIAL          0.0000          0.0000          0.0000          0.0000          0.0000          0.0000
       688        TRIAXIAL          0.0000          0.0000          0.0000          0.0000          0.0000          0.0000
       689        TRIAXIAL          0.0000          0.0000          0.0000          0.0000          0.0000          0.0000
       690        TRIAXIAL          0.0000          0.0000          0.0000          0.0000          0.0000          0.0000
       691        TRIAXIAL          0.0000          0.0000          0.0000          0.0000          0.0000          0.0000
**************************************************************************************************************************** 
ELEMENT_5: 
**************************************************************************************************************************** 
	 Maximum stress: 

	 	 	 	 	 	 	 	 	 Max value [MPa] Element ID 	 	 Material 
	    Sigma_xx           0.0000         76                PAINT 
	    Sigma_yy           0.0000         76                PAINT 
	    Sigma_xy           0.0000         76                PAINT 
	    Sigma_xz           0.0000         76                PAINT 
	    Sigma_yz           0.0000         76                PAINT 
	    Sigma_zz           0.0000         76                PAINT 

	 Minimum stress: 

	 	 	 	 	 	 	 	 	 Min value [MPa] Element ID 	 	 Material 
	   Sigma_xx           0.0000         76                PAINT 
	   Sigma_yy           0.0000         76                PAINT 
	   Sigma_xy           0.0000         76                PAINT 
	   Sigma_xz           0.0000         76                PAINT 
	   Sigma_yz           0.0000         76                PAINT 
	   Sigma_zz           0.0000         76                PAINT 

**************************************************************************************************************************** 
	 Element:   Material        sigma_xx [Mpa]  sigma_yy [Mpa]  sigma_xy [Mpa]  sigma_xz [Mpa]  sigma_yz [Mpa]  sigma_zz [Mpa]  
        76           PAINT          0.0000          0.0000          0.0000          0.0000          0.0000          0.0000
        77           PAINT          0.0000          0.0000          0.0000          0.0000          0.0000          0.0000
        78           PAINT          0.0000          0.0000          0.0000          0.0000          0.0000          0.0000
        79           PAINT          0.0000          0.0000          0.0000          0.0000          0.0000          0.0000
        80           PAINT          0.0000          0.0000          0.0000          0.0000          0.0000          0.0000
        81           PAINT          0.0000          0.0000          0.0000          0.0000          0.0000          0.0000
        82           PAINT          0.0000          0.0000          0.0000          0.0000          0.0000          0.0000
        83           PAINT          0.0000          0.0000          0.0000          0.0000          0.0000          0.0000
        84           PAINT          0.0000          0.0000          0.0000          0.0000          0.0000          0.0000
        85           PAINT          0.0000          0.0000          0.0000          0.0000          0.0000          0.0000
        86           PAINT          0.0000          0.0000          0.0000          0.0000          0.0000          0.0000
        87           PAINT          0.0000          0.0000          0.0000          0.0000          0.0000          0.0000
        88           PAINT          0.0000          0.0000          0.0000          0.0000          0.0000          0.0000
        89           PAINT          0.0000          0.0000          0.0000          0.0000          0.0000          0.0000
        90           PAINT          0.0000          0.0000          0.0000          0.0000          0.0000          0.0000
        91           PAINT          0.0000          0.0000          0.0000          0.0000          0.0000          0.0000
        92           PAINT          0.0000          0.0000          0.0000          0.0000          0.0000          0.0000
        93           PAINT          0.0000          0.0000          0.0000          0.0000          0.0000          0.0000
        94           PAINT          0.0000          0.0000          0.0000          0.0000          0.0000          0.0000
        95           PAINT          0.0000          0.0000          0.0000          0.0000          0.0000          0.0000
        96           PAINT          0.0000          0.0000          0.0000          0.0000          0.0000          0.0000
        97           PAINT          0.0000          0.0000          0.0000          0.0000          0.0000          0.0000
        98           PAINT          0.0000          0.0000          0.0000          0.0000          0.0000          0.0000
        99           PAINT          0.0000          0.0000          0.0000          0.0000          0.0000          0.0000
       384        TRIAXIAL          0.0000          0.0000          0.0000          0.0000          0.0000          0.0000
       385        TRIAXIAL          0.0000          0.0000          0.0000          0.0000          0.0000          0.0000
       386        TRIAXIAL          0.0000          0.0000          0.0000          0.0000          0.0000          0.0000
       387        TRIAXIAL          0.0000          0.0000          0.0000          0.0000          0.0000          0.0000
       388        TRIAXIAL          0.0000          0.0000          0.0000          0.0000          0.0000          0.0000
       389        TRIAXIAL          0.0000          0.0000          0.0000          0.0000          0.0000          0.0000
       390        TRIAXIAL          0.0000          0.0000          0.0000          0.0000          0.0000          0.0000
       391        TRIAXIAL          0.0000          0.0000          0.0000          0.0000          0.0000          0.0000
       392        TRIAXIAL          0.0000          0.0000          0.0000          0.0000          0.0000          0.0000
       393        TRIAXIAL          0.0000          0.0000          0.0000          0.0000          0.0000          0.0000
       394        TRIAXIAL          0.0000          0.0000          0.0000          0.0000          0.0000          0.0000
       395        TRIAXIAL          0.0000          0.0000          0.0000          0.0000          0.0000          0.0000
       396        TRIAXIAL          0.0000          0.0000          0.0000          0.0000          0.0000          0.0000
       397        TRIAXIAL          0.0000          0.0000          0.0000          0.0000          0.0000          0.0000
       398        TRIAXIAL          0.0000          0.0000          0.0000          0.0000          0.0000          0.0000
       399        TRIAXIAL          0.0000          0.0000          0.0000          0.0000          0.0000          0.0000
       400        TRIAXIAL          0.0000          0.0000          0.0000          0.0000          0.0000          0.0000
       401        TRIAXIAL          0.0000          0.0000          0.0000          0.0000          0.0000          0.0000
       402        TRIAXIAL          0.0000          0.0000          0.0000          0.0000          0.0000          0.0000
       403        TRIAXIAL          0.0000          0.0000          0.0000          0.0000          0.0000          0.0000
       404        TRIAXIAL          0.0000          0.0000          0.0000          0.0000          0.0000          0.0000
       405        TRIAXIAL          0.0000          0.0000          0.0000          0.0000          0.0000          0.0000
       406        TRIAXIAL          0.0000          0.0000          0.0000          0.0000          0.0000          0.0000
       407        TRIAXIAL          0.0000          0.0000          0.0000          0.0000          0.0000          0.0000
       692        TRIAXIAL          0.0000          0.0000          0.0000          0.0000          0.0000          0.0000
       693        TRIAXIAL          0.0000          0.0000          0.0000          0.0000          0.0000          0.0000
       694        TRIAXIAL          0.0000          0.0000          0.0000          0.0000          0.0000          0.0000
       695        TRIAXIAL          0.0000          0.0000          0.0000          0.0000          0.0000          0.0000
       696        TRIAXIAL          0.0000          0.0000          0.0000          0.0000          0.0000          0.0000
       697        TRIAXIAL          0.0000          0.0000          0.0000          0.0000          0.0000          0.0000
       698        TRIAXIAL          0.0000          0.0000          0.0000          0.0000          0.0000          0.0000
       699        TRIAXIAL          0.0000          0.0000          0.0000          0.0000          0.0000          0.0000
       700        TRIAXIAL          0.0000          0.0000          0.0000          0.0000          0.0000          0.0000
       701        TRIAXIAL          0.0000          0.0000          0.0000          0.0000          0.0000          0.0000
       702        TRIAXIAL          0.0000          0.0000          0.0000          0.0000          0.0000          0.0000
       703        TRIAXIAL          0.0000          0.0000          0.0000          0.0000          0.0000          0.0000
       704        TRIAXIAL          0.0000          0.0000          0.0000          0.0000          0.0000          0.0000
       705        TRIAXIAL          0.0000          0.0000          0.0000          0.0000          0.0000          0.0000
       706        TRIAXIAL          0.0000          0.0000          0.0000          0.0000          0.0000          0.0000
       707        TRIAXIAL          0.0000          0.0000          0.0000          0.0000          0.0000          0.0000
       708        TRIAXIAL          0.0000          0.0000          0.0000          0.0000          0.0000          0.0000
       709        TRIAXIAL          0.0000          0.0000          0.0000          0.0000          0.0000          0.0000
       710        TRIAXIAL          0.0000          0.0000          0.0000          0.0000          0.0000          0.0000
       711        TRIAXIAL          0.0000          0.0000          0.0000          0.0000          0.0000          0.0000
       712        TRIAXIAL          0.0000          0.0000          0.0000          0.0000          0.0000          0.0000
       713        TRIAXIAL          0.0000          0.0000          0.0000          0.0000          0.0000          0.0000
       714        TRIAXIAL          0.0000          0.0000          0.0000          0.0000          0.0000          0.0000
       715        TRIAXIAL          0.0000          0.0000          0.0000          0.0000          0.0000          0.0000
**************************************************************************************************************************** 
ELEMENT_6: 
**************************************************************************************************************************** 
	 Maximum stress: 

	 	 	 	 	 	 	 	 	 Max value [MPa] Element ID 	 	 Material 
	    Sigma_xx           0.0000        100                PAINT 
	    Sigma_yy           0.0000        100                PAINT 
	    Sigma_xy           0.0000        100                PAINT 
	    Sigma_xz           0.0000        100                PAINT 
	    Sigma_yz           0.0000        100                PAINT 
	    Sigma_zz           0.0000        100                PAINT 

	 Minimum stress: 

	 	 	 	 	 	 	 	 	 Min value [MPa] Element ID 	 	 Material 
	   Sigma_xx           0.0000        100                PAINT 
	   Sigma_yy           0.0000        100                PAINT 
	   Sigma_xy           0.0000        100                PAINT 
	   Sigma_xz           0.0000        100                PAINT 
	   Sigma_yz           0.0000        100                PAINT 
	   Sigma_zz           0.0000        100                PAINT 

**************************************************************************************************************************** 
	 Element:   Material        sigma_xx [Mpa]  sigma_yy [Mpa]  sigma_xy [Mpa]  sigma_xz [Mpa]  sigma_yz [Mpa]  sigma_zz [Mpa]  
       100           PAINT          0.0000          0.0000          0.0000          0.0000          0.0000          0.0000
       101           PAINT          0.0000          0.0000          0.0000          0.0000          0.0000          0.0000
       102           PAINT          0.0000          0.0000          0.0000          0.0000          0.0000          0.0000
       103           PAINT          0.0000          0.0000          0.0000          0.0000          0.0000          0.0000
       104           PAINT          0.0000          0.0000          0.0000          0.0000          0.0000          0.0000
       105           PAINT          0.0000          0.0000          0.0000          0.0000          0.0000          0.0000
       106           PAINT          0.0000          0.0000          0.0000          0.0000          0.0000          0.0000
       107           PAINT          0.0000          0.0000          0.0000          0.0000          0.0000          0.0000
       108           PAINT          0.0000          0.0000          0.0000          0.0000          0.0000          0.0000
       109           PAINT          0.0000          0.0000          0.0000          0.0000          0.0000          0.0000
       110           PAINT          0.0000          0.0000          0.0000          0.0000          0.0000          0.0000
       111           PAINT          0.0000          0.0000          0.0000          0.0000          0.0000          0.0000
       112           PAINT          0.0000          0.0000          0.0000          0.0000          0.0000          0.0000
       113           PAINT          0.0000          0.0000          0.0000          0.0000          0.0000          0.0000
       114           PAINT          0.0000          0.0000          0.0000          0.0000          0.0000          0.0000
       115           PAINT          0.0000          0.0000          0.0000          0.0000          0.0000          0.0000
       116           PAINT          0.0000          0.0000          0.0000          0.0000          0.0000          0.0000
       117           PAINT          0.0000          0.0000          0.0000          0.0000          0.0000          0.0000
       118           PAINT          0.0000          0.0000          0.0000          0.0000          0.0000          0.0000
       119           PAINT          0.0000          0.0000          0.0000          0.0000          0.0000          0.0000
       120           PAINT          0.0000          0.0000          0.0000          0.0000          0.0000          0.0000
       121           PAINT          0.0000          0.0000          0.0000          0.0000          0.0000          0.0000
       122           PAINT          0.0000          0.0000          0.0000          0.0000          0.0000          0.0000
       408        TRIAXIAL          0.0000          0.0000          0.0000          0.0000          0.0000          0.0000
       409        TRIAXIAL          0.0000          0.0000          0.0000          0.0000          0.0000          0.0000
       410        TRIAXIAL          0.0000          0.0000          0.0000          0.0000          0.0000          0.0000
       411        TRIAXIAL          0.0000          0.0000          0.0000          0.0000          0.0000          0.0000
       412        TRIAXIAL          0.0000          0.0000          0.0000          0.0000          0.0000          0.0000
       413        TRIAXIAL          0.0000          0.0000          0.0000          0.0000          0.0000          0.0000
       414        TRIAXIAL          0.0000          0.0000          0.0000          0.0000          0.0000          0.0000
       415        TRIAXIAL          0.0000          0.0000          0.0000          0.0000          0.0000          0.0000
       416        TRIAXIAL          0.0000          0.0000          0.0000          0.0000          0.0000          0.0000
       417        TRIAXIAL          0.0000          0.0000          0.0000          0.0000          0.0000          0.0000
       418        TRIAXIAL          0.0000          0.0000          0.0000          0.0000          0.0000          0.0000
       419        TRIAXIAL          0.0000          0.0000          0.0000          0.0000          0.0000          0.0000
       420        TRIAXIAL          0.0000          0.0000          0.0000          0.0000          0.0000          0.0000
       421        TRIAXIAL          0.0000          0.0000          0.0000          0.0000          0.0000          0.0000
       422        TRIAXIAL          0.0000          0.0000          0.0000          0.0000          0.0000          0.0000
       423        TRIAXIAL          0.0000          0.0000          0.0000          0.0000          0.0000          0.0000
       424        TRIAXIAL          0.0000          0.0000          0.0000          0.0000          0.0000          0.0000
       425        TRIAXIAL          0.0000          0.0000          0.0000          0.0000          0.0000          0.0000
       426        TRIAXIAL          0.0000          0.0000          0.0000          0.0000          0.0000          0.0000
       427        TRIAXIAL          0.0000          0.0000          0.0000          0.0000          0.0000          0.0000
       428        TRIAXIAL          0.0000          0.0000          0.0000          0.0000          0.0000          0.0000
       429        TRIAXIAL          0.0000          0.0000          0.0000          0.0000          0.0000          0.0000
       430        TRIAXIAL          0.0000          0.0000          0.0000          0.0000          0.0000          0.0000
       716        TRIAXIAL          0.0000          0.0000          0.0000          0.0000          0.0000          0.0000
       717        TRIAXIAL          0.0000          0.0000          0.0000          0.0000          0.0000          0.0000
       718        TRIAXIAL          0.0000          0.0000          0.0000          0.0000          0.0000          0.0000
       719        TRIAXIAL          0.0000          0.0000          0.0000          0.0000          0.0000          0.0000
       720        TRIAXIAL          0.0000          0.0000          0.0000          0.0000          0.0000          0.0000
       721        TRIAXIAL          0.0000          0.0000          0.0000          0.0000          0.0000          0.0000
       722        TRIAXIAL          0.0000          0.0000          0.0000          0.0000          0.0000          0.0000
       723        TRIAXIAL          0.0000          0.0000          0.0000          0.0000          0.0000          0.0000
       724        TRIAXIAL          0.0000          0.0000          0.0000          0.0000          0.0000          0.0000
       725        TRIAXIAL          0.0000          0.0000          0.0000          0.0000          0.0000          0.0000
       726        TRIAXIAL          0.0000          0.0000          0.0000          0.0000          0.0000          0.0000
       727        TRIAXIAL          0.0000          0.0000          0.0000          0.0000          0.0000          0.0000
       728        TRIAXIAL          0.0000          0.0000          0.0000          0.0000          0.0000          0.0000
       729        TRIAXIAL          0.0000          0.0000          0.0000          0.0000          0.0000          0.0000
       730        TRIAXIAL          0.0000          0.0000          0.0000          0.0000          0.0000          0.0000
       731        TRIAXIAL          0.0000          0.0000          0.0000          0.0000          0.0000          0.0000
       732        TRIAXIAL          0.0000          0.0000          0.0000          0.0000          0.0000          0.0000
       733        TRIAXIAL          0.0000          0.0000          0.0000          0.0000          0.0000          0.0000
       734        TRIAXIAL          0.0000          0.0000          0.0000          0.0000          0.0000          0.0000
       735        TRIAXIAL          0.0000          0.0000          0.0000          0.0000          0.0000          0.0000
       736        TRIAXIAL          0.0000          0.0000          0.0000          0.0000          0.0000          0.0000
       737        TRIAXIAL          0.0000          0.0000          0.0000          0.0000          0.0000          0.0000
       738        TRIAXIAL          0.0000          0.0000          0.0000          0.0000          0.0000          0.0000
**************************************************************************************************************************** 
ELEMENT_7: 
**************************************************************************************************************************** 
	 Maximum stress: 

	 	 	 	 	 	 	 	 	 Max value [MPa] Element ID 	 	 Material 
	    Sigma_xx           0.0000        123                PAINT 
	    Sigma_yy           0.0000        123                PAINT 
	    Sigma_xy           0.0000        123                PAINT 
	    Sigma_xz           0.0000        123                PAINT 
	    Sigma_yz           0.0000        123                PAINT 
	    Sigma_zz           0.0000        123                PAINT 

	 Minimum stress: 

	 	 	 	 	 	 	 	 	 Min value [MPa] Element ID 	 	 Material 
	   Sigma_xx           0.0000        123                PAINT 
	   Sigma_yy           0.0000        123                PAINT 
	   Sigma_xy           0.0000        123                PAINT 
	   Sigma_xz           0.0000        123                PAINT 
	   Sigma_yz           0.0000        123                PAINT 
	   Sigma_zz           0.0000        123                PAINT 

**************************************************************************************************************************** 
	 Element:   Material        sigma_xx [Mpa]  sigma_yy [Mpa]  sigma_xy [Mpa]  sigma_xz [Mpa]  sigma_yz [Mpa]  sigma_zz [Mpa]  
       123           PAINT          0.0000          0.0000          0.0000          0.0000          0.0000          0.0000
       124           PAINT          0.0000          0.0000          0.0000          0.0000          0.0000          0.0000
       125           PAINT          0.0000          0.0000          0.0000          0.0000          0.0000          0.0000
       126           PAINT          0.0000          0.0000          0.0000          0.0000          0.0000          0.0000
       127           PAINT          0.0000          0.0000          0.0000          0.0000          0.0000          0.0000
       128           PAINT          0.0000          0.0000          0.0000          0.0000          0.0000          0.0000
       129           PAINT          0.0000          0.0000          0.0000          0.0000          0.0000          0.0000
       130           PAINT          0.0000          0.0000          0.0000          0.0000          0.0000          0.0000
       131           PAINT          0.0000          0.0000          0.0000          0.0000          0.0000          0.0000
       132           PAINT          0.0000          0.0000          0.0000          0.0000          0.0000          0.0000
       431        TRIAXIAL          0.0000          0.0000          0.0000          0.0000          0.0000          0.0000
       432        TRIAXIAL          0.0000          0.0000          0.0000          0.0000          0.0000          0.0000
       433        TRIAXIAL          0.0000          0.0000          0.0000          0.0000          0.0000          0.0000
       434        TRIAXIAL          0.0000          0.0000          0.0000          0.0000          0.0000          0.0000
       435        TRIAXIAL          0.0000          0.0000          0.0000          0.0000          0.0000          0.0000
       436        TRIAXIAL          0.0000          0.0000          0.0000          0.0000          0.0000          0.0000
       437        TRIAXIAL          0.0000          0.0000          0.0000          0.0000          0.0000          0.0000
       438        TRIAXIAL          0.0000          0.0000          0.0000          0.0000          0.0000          0.0000
       439        TRIAXIAL          0.0000          0.0000          0.0000          0.0000          0.0000          0.0000
       440        TRIAXIAL          0.0000          0.0000          0.0000          0.0000          0.0000          0.0000
       739        TRIAXIAL          0.0000          0.0000          0.0000          0.0000          0.0000          0.0000
       740        TRIAXIAL          0.0000          0.0000          0.0000          0.0000          0.0000          0.0000
       741        TRIAXIAL          0.0000          0.0000          0.0000          0.0000          0.0000          0.0000
       742        TRIAXIAL          0.0000          0.0000          0.0000          0.0000          0.0000          0.0000
       743        TRIAXIAL          0.0000          0.0000          0.0000          0.0000          0.0000          0.0000
       744        TRIAXIAL          0.0000          0.0000          0.0000          0.0000          0.0000          0.0000
       745        TRIAXIAL          0.0000          0.0000          0.0000          0.0000          0.0000          0.0000
       746        TRIAXIAL          0.0000          0.0000          0.0000          0.0000          0.0000          0.0000
       747        TRIAXIAL          0.0000          0.0000          0.0000          0.0000          0.0000          0.0000
       748        TRIAXIAL          0.0000          0.0000          0.0000          0.0000          0.0000          0.0000
**************************************************************************************************************************** 
ELEMENT_8: 
**************************************************************************************************************************** 
	 Maximum stress: 

	 	 	 	 	 	 	 	 	 Max value [MPa] Element ID 	 	 Material 
	    Sigma_xx           0.0000        133                PAINT 
	    Sigma_yy           0.0000        133                PAINT 
	    Sigma_xy           0.0000        133                PAINT 
	    Sigma_xz           0.0000        133                PAINT 
	    Sigma_yz           0.0000        133                PAINT 
	    Sigma_zz           0.0000        133                PAINT 

	 Minimum stress: 

	 	 	 	 	 	 	 	 	 Min value [MPa] Element ID 	 	 Material 
	   Sigma_xx           0.0000        133                PAINT 
	   Sigma_yy           0.0000        133                PAINT 
	   Sigma_xy           0.0000        133                PAINT 
	   Sigma_xz           0.0000        133                PAINT 
	   Sigma_yz           0.0000        133                PAINT 
	   Sigma_zz           0.0000        133                PAINT 

**************************************************************************************************************************** 
	 Element:   Material        sigma_xx [Mpa]  sigma_yy [Mpa]  sigma_xy [Mpa]  sigma_xz [Mpa]  sigma_yz [Mpa]  sigma_zz [Mpa]  
       133           PAINT          0.0000          0.0000          0.0000          0.0000          0.0000          0.0000
       134           PAINT          0.0000          0.0000          0.0000          0.0000          0.0000          0.0000
       135           PAINT          0.0000          0.0000          0.0000          0.0000          0.0000          0.0000
       136           PAINT          0.0000          0.0000          0.0000          0.0000          0.0000          0.0000
       137           PAINT          0.0000          0.0000          0.0000          0.0000          0.0000          0.0000
       138           PAINT          0.0000          0.0000          0.0000          0.0000          0.0000          0.0000
       139           PAINT          0.0000          0.0000          0.0000          0.0000          0.0000          0.0000
       140           PAINT          0.0000          0.0000          0.0000          0.0000          0.0000          0.0000
       141           PAINT          0.0000          0.0000          0.0000          0.0000          0.0000          0.0000
       142           PAINT          0.0000          0.0000          0.0000          0.0000          0.0000          0.0000
       143           PAINT          0.0000          0.0000          0.0000          0.0000          0.0000          0.0000
       144           PAINT          0.0000          0.0000          0.0000          0.0000          0.0000          0.0000
       145           PAINT          0.0000          0.0000          0.0000          0.0000          0.0000          0.0000
       146           PAINT          0.0000          0.0000          0.0000          0.0000          0.0000          0.0000
       147           PAINT          0.0000          0.0000          0.0000          0.0000          0.0000          0.0000
       148           PAINT          0.0000          0.0000          0.0000          0.0000          0.0000          0.0000
       149           PAINT          0.0000          0.0000          0.0000          0.0000          0.0000          0.0000
       150           PAINT          0.0000          0.0000          0.0000          0.0000          0.0000          0.0000
       151           PAINT          0.0000          0.0000          0.0000          0.0000          0.0000          0.0000
       152           PAINT          0.0000          0.0000          0.0000          0.0000          0.0000          0.0000
       153           PAINT          0.0000          0.0000          0.0000          0.0000          0.0000          0.0000
       154           PAINT          0.0000          0.0000          0.0000          0.0000          0.0000          0.0000
       155           PAINT          0.0000          0.0000          0.0000          0.0000          0.0000          0.0000
       156           PAINT          0.0000          0.0000          0.0000          0.0000          0.0000          0.0000
       157           PAINT          0.0000          0.0000          0.0000          0.0000          0.0000          0.0000
       158           PAINT          0.0000          0.0000          0.0000          0.0000          0.0000          0.0000
       159           PAINT          0.0000          0.0000          0.0000          0.0000          0.0000          0.0000
       160           PAINT          0.0000          0.0000          0.0000          0.0000          0.0000          0.0000
       161           PAINT          0.0000          0.0000          0.0000          0.0000          0.0000          0.0000
       162           PAINT          0.0000          0.0000          0.0000          0.0000          0.0000          0.0000
       163           PAINT          0.0000          0.0000          0.0000          0.0000          0.0000          0.0000
       164           PAINT          0.0000          0.0000          0.0000          0.0000          0.0000          0.0000
       165           PAINT          0.0000          0.0000          0.0000          0.0000          0.0000          0.0000
       441        TRIAXIAL          0.0000          0.0000          0.0000          0.0000          0.0000          0.0000
       442        TRIAXIAL          0.0000          0.0000          0.0000          0.0000          0.0000          0.0000
       443        TRIAXIAL          0.0000          0.0000          0.0000          0.0000          0.0000          0.0000
       444        TRIAXIAL          0.0000          0.0000          0.0000          0.0000          0.0000          0.0000
       445        TRIAXIAL          0.0000          0.0000          0.0000          0.0000          0.0000          0.0000
       446        TRIAXIAL          0.0000          0.0000          0.0000          0.0000          0.0000          0.0000
       447        TRIAXIAL          0.0000          0.0000          0.0000          0.0000          0.0000          0.0000
       448        TRIAXIAL          0.0000          0.0000          0.0000          0.0000          0.0000          0.0000
       449        TRIAXIAL          0.0000          0.0000          0.0000          0.0000          0.0000          0.0000
       450        TRIAXIAL          0.0000          0.0000          0.0000          0.0000          0.0000          0.0000
       451        TRIAXIAL          0.0000          0.0000          0.0000          0.0000          0.0000          0.0000
       452        TRIAXIAL          0.0000          0.0000          0.0000          0.0000          0.0000          0.0000
       453        TRIAXIAL          0.0000          0.0000          0.0000          0.0000          0.0000          0.0000
       454        TRIAXIAL          0.0000          0.0000          0.0000          0.0000          0.0000          0.0000
       455        TRIAXIAL          0.0000          0.0000          0.0000          0.0000          0.0000          0.0000
       456        TRIAXIAL          0.0000          0.0000          0.0000          0.0000          0.0000          0.0000
       457        TRIAXIAL          0.0000          0.0000          0.0000          0.0000          0.0000          0.0000
       458        TRIAXIAL          0.0000          0.0000          0.0000          0.0000          0.0000          0.0000
       459        TRIAXIAL          0.0000          0.0000          0.0000          0.0000          0.0000          0.0000
       460        TRIAXIAL          0.0000          0.0000          0.0000          0.0000          0.0000          0.0000
       461        TRIAXIAL          0.0000          0.0000          0.0000          0.0000          0.0000          0.0000
       462        TRIAXIAL          0.0000          0.0000          0.0000          0.0000          0.0000          0.0000
       463        TRIAXIAL          0.0000          0.0000          0.0000          0.0000          0.0000          0.0000
       464        TRIAXIAL          0.0000          0.0000          0.0000          0.0000          0.0000          0.0000
       465        TRIAXIAL          0.0000          0.0000          0.0000          0.0000          0.0000          0.0000
       466        TRIAXIAL          0.0000          0.0000          0.0000          0.0000          0.0000          0.0000
       467        TRIAXIAL          0.0000          0.0000          0.0000          0.0000          0.0000          0.0000
       468        TRIAXIAL          0.0000          0.0000          0.0000          0.0000          0.0000          0.0000
       469        TRIAXIAL          0.0000          0.0000          0.0000          0.0000          0.0000          0.0000
       470        TRIAXIAL          0.0000          0.0000          0.0000          0.0000          0.0000          0.0000
       471        TRIAXIAL          0.0000          0.0000          0.0000          0.0000          0.0000          0.0000
       472        TRIAXIAL          0.0000          0.0000          0.0000          0.0000          0.0000          0.0000
       473        TRIAXIAL          0.0000          0.0000          0.0000          0.0000          0.0000          0.0000
       749        TRIAXIAL          0.0000          0.0000          0.0000          0.0000          0.0000          0.0000
       750        TRIAXIAL          0.0000          0.0000          0.0000          0.0000          0.0000          0.0000
       751        TRIAXIAL          0.0000          0.0000          0.0000          0.0000          0.0000          0.0000
       752        TRIAXIAL          0.0000          0.0000          0.0000          0.0000          0.0000          0.0000
       753        TRIAXIAL          0.0000          0.0000          0.0000          0.0000          0.0000          0.0000
       754        TRIAXIAL          0.0000          0.0000          0.0000          0.0000          0.0000          0.0000
       755        TRIAXIAL          0.0000          0.0000          0.0000          0.0000          0.0000          0.0000
       756        TRIAXIAL          0.0000          0.0000          0.0000          0.0000          0.0000          0.0000
       757        TRIAXIAL          0.0000          0.0000          0.0000          0.0000          0.0000          0.0000
       758        TRIAXIAL          0.0000          0.0000          0.0000          0.0000          0.0000          0.0000
       759        TRIAXIAL          0.0000          0.0000          0.0000          0.0000          0.0000          0.0000
       760        TRIAXIAL          0.0000          0.0000          0.0000          0.0000          0.0000          0.0000
       761        TRIAXIAL          0.0000          0.0000          0.0000          0.0000          0.0000          0.0000
       762        TRIAXIAL          0.0000          0.0000          0.0000          0.0000          0.0000          0.0000
       763        TRIAXIAL          0.0000          0.0000          0.0000          0.0000          0.0000          0.0000
       764        TRIAXIAL          0.0000          0.0000          0.0000          0.0000          0.0000          0.0000
       765        TRIAXIAL          0.0000          0.0000          0.0000          0.0000          0.0000          0.0000
       766        TRIAXIAL          0.0000          0.0000          0.0000          0.0000          0.0000          0.0000
       767        TRIAXIAL          0.0000          0.0000          0.0000          0.0000          0.0000          0.0000
       768        TRIAXIAL          0.0000          0.0000          0.0000          0.0000          0.0000          0.0000
       769        TRIAXIAL          0.0000          0.0000          0.0000          0.0000          0.0000          0.0000
       770        TRIAXIAL          0.0000          0.0000          0.0000          0.0000          0.0000          0.0000
       771        TRIAXIAL          0.0000          0.0000          0.0000          0.0000          0.0000          0.0000
       772        TRIAXIAL          0.0000          0.0000          0.0000          0.0000          0.0000          0.0000
       773        TRIAXIAL          0.0000          0.0000          0.0000          0.0000          0.0000          0.0000
       774        TRIAXIAL          0.0000          0.0000          0.0000          0.0000          0.0000          0.0000
       775        TRIAXIAL          0.0000          0.0000          0.0000          0.0000          0.0000          0.0000
       776        TRIAXIAL          0.0000          0.0000          0.0000          0.0000          0.0000          0.0000
       777        TRIAXIAL          0.0000          0.0000          0.0000          0.0000          0.0000          0.0000
       778        TRIAXIAL          0.0000          0.0000          0.0000          0.0000          0.0000          0.0000
       779        TRIAXIAL          0.0000          0.0000          0.0000          0.0000          0.0000          0.0000
       780        TRIAXIAL          0.0000          0.0000          0.0000          0.0000          0.0000          0.0000
       781        TRIAXIAL          0.0000          0.0000          0.0000          0.0000          0.0000          0.0000
**************************************************************************************************************************** 
ELEMENT_9: 
**************************************************************************************************************************** 
	 Maximum stress: 

	 	 	 	 	 	 	 	 	 Max value [MPa] Element ID 	 	 Material 
	    Sigma_xx           0.0000        166                PAINT 
	    Sigma_yy           0.0000        166                PAINT 
	    Sigma_xy           0.0000        166                PAINT 
	    Sigma_xz           0.0000        166                PAINT 
	    Sigma_yz           0.0000        166                PAINT 
	    Sigma_zz           0.0000        166                PAINT 

	 Minimum stress: 

	 	 	 	 	 	 	 	 	 Min value [MPa] Element ID 	 	 Material 
	   Sigma_xx           0.0000        166                PAINT 
	   Sigma_yy           0.0000        166                PAINT 
	   Sigma_xy           0.0000        166                PAINT 
	   Sigma_xz           0.0000        166                PAINT 
	   Sigma_yz           0.0000        166                PAINT 
	   Sigma_zz           0.0000        166                PAINT 

**************************************************************************************************************************** 
	 Element:   Material        sigma_xx [Mpa]  sigma_yy [Mpa]  sigma_xy [Mpa]  sigma_xz [Mpa]  sigma_yz [Mpa]  sigma_zz [Mpa]  
       166           PAINT          0.0000          0.0000          0.0000          0.0000          0.0000          0.0000
       167           PAINT          0.0000          0.0000          0.0000          0.0000          0.0000          0.0000
       168           PAINT          0.0000          0.0000          0.0000          0.0000          0.0000          0.0000
       169           PAINT          0.0000          0.0000          0.0000          0.0000          0.0000          0.0000
       170           PAINT          0.0000          0.0000          0.0000          0.0000          0.0000          0.0000
       171           PAINT          0.0000          0.0000          0.0000          0.0000          0.0000          0.0000
       172           PAINT          0.0000          0.0000          0.0000          0.0000          0.0000          0.0000
       173           PAINT          0.0000          0.0000          0.0000          0.0000          0.0000          0.0000
       174           PAINT          0.0000          0.0000          0.0000          0.0000          0.0000          0.0000
       175           PAINT          0.0000          0.0000          0.0000          0.0000          0.0000          0.0000
       474        TRIAXIAL          0.0000          0.0000          0.0000          0.0000          0.0000          0.0000
       475        TRIAXIAL          0.0000          0.0000          0.0000          0.0000          0.0000          0.0000
       476        TRIAXIAL          0.0000          0.0000          0.0000          0.0000          0.0000          0.0000
       477        TRIAXIAL          0.0000          0.0000          0.0000          0.0000          0.0000          0.0000
       478        TRIAXIAL          0.0000          0.0000          0.0000          0.0000          0.0000          0.0000
       479        TRIAXIAL          0.0000          0.0000          0.0000          0.0000          0.0000          0.0000
       480        TRIAXIAL          0.0000          0.0000          0.0000          0.0000          0.0000          0.0000
       481        TRIAXIAL          0.0000          0.0000          0.0000          0.0000          0.0000          0.0000
       482        TRIAXIAL          0.0000          0.0000          0.0000          0.0000          0.0000          0.0000
       483        TRIAXIAL          0.0000          0.0000          0.0000          0.0000          0.0000          0.0000
       782        TRIAXIAL          0.0000          0.0000          0.0000          0.0000          0.0000          0.0000
       783        TRIAXIAL          0.0000          0.0000          0.0000          0.0000          0.0000          0.0000
       784        TRIAXIAL          0.0000          0.0000          0.0000          0.0000          0.0000          0.0000
       785        TRIAXIAL          0.0000          0.0000          0.0000          0.0000          0.0000          0.0000
       786        TRIAXIAL          0.0000          0.0000          0.0000          0.0000          0.0000          0.0000
       787        TRIAXIAL          0.0000          0.0000          0.0000          0.0000          0.0000          0.0000
       788        TRIAXIAL          0.0000          0.0000          0.0000          0.0000          0.0000          0.0000
       789        TRIAXIAL          0.0000          0.0000          0.0000          0.0000          0.0000          0.0000
       790        TRIAXIAL          0.0000          0.0000          0.0000          0.0000          0.0000          0.0000
       791        TRIAXIAL          0.0000          0.0000          0.0000          0.0000          0.0000          0.0000
**************************************************************************************************************************** 
ELEMENT_10: 
**************************************************************************************************************************** 
	 Maximum stress: 

	 	 	 	 	 	 	 	 	 Max value [MPa] Element ID 	 	 Material 
	    Sigma_xx           0.0000        176                PAINT 
	    Sigma_yy           0.0000        176                PAINT 
	    Sigma_xy           0.0000        176                PAINT 
	    Sigma_xz           0.0000        176                PAINT 
	    Sigma_yz           0.0000        176                PAINT 
	    Sigma_zz           0.0000        176                PAINT 

	 Minimum stress: 

	 	 	 	 	 	 	 	 	 Min value [MPa] Element ID 	 	 Material 
	   Sigma_xx           0.0000        176                PAINT 
	   Sigma_yy           0.0000        176                PAINT 
	   Sigma_xy           0.0000        176                PAINT 
	   Sigma_xz           0.0000        176                PAINT 
	   Sigma_yz           0.0000        176                PAINT 
	   Sigma_zz           0.0000        176                PAINT 

**************************************************************************************************************************** 
	 Element:   Material        sigma_xx [Mpa]  sigma_yy [Mpa]  sigma_xy [Mpa]  sigma_xz [Mpa]  sigma_yz [Mpa]  sigma_zz [Mpa]  
       176           PAINT          0.0000          0.0000          0.0000          0.0000          0.0000          0.0000
       177           PAINT          0.0000          0.0000          0.0000          0.0000          0.0000          0.0000
       178           PAINT          0.0000          0.0000          0.0000          0.0000          0.0000          0.0000
       179           PAINT          0.0000          0.0000          0.0000          0.0000          0.0000          0.0000
       180           PAINT          0.0000          0.0000          0.0000          0.0000          0.0000          0.0000
       181           PAINT          0.0000          0.0000          0.0000          0.0000          0.0000          0.0000
       182           PAINT          0.0000          0.0000          0.0000          0.0000          0.0000          0.0000
       183           PAINT          0.0000          0.0000          0.0000          0.0000          0.0000          0.0000
       184           PAINT          0.0000          0.0000          0.0000          0.0000          0.0000          0.0000
       185           PAINT          0.0000          0.0000          0.0000          0.0000          0.0000          0.0000
       186           PAINT          0.0000          0.0000          0.0000          0.0000          0.0000          0.0000
       187           PAINT          0.0000          0.0000          0.0000          0.0000          0.0000          0.0000
       188           PAINT          0.0000          0.0000          0.0000          0.0000          0.0000          0.0000
       189           PAINT          0.0000          0.0000          0.0000          0.0000          0.0000          0.0000
       190           PAINT          0.0000          0.0000          0.0000          0.0000          0.0000          0.0000
       191           PAINT          0.0000          0.0000          0.0000          0.0000          0.0000          0.0000
       192           PAINT          0.0000          0.0000          0.0000          0.0000          0.0000          0.0000
       193           PAINT          0.0000          0.0000          0.0000          0.0000          0.0000          0.0000
       194           PAINT          0.0000          0.0000          0.0000          0.0000          0.0000          0.0000
       195           PAINT          0.0000          0.0000          0.0000          0.0000          0.0000          0.0000
       196           PAINT          0.0000          0.0000          0.0000          0.0000          0.0000          0.0000
       197           PAINT          0.0000          0.0000          0.0000          0.0000          0.0000          0.0000
       198           PAINT          0.0000          0.0000          0.0000          0.0000          0.0000          0.0000
       484        TRIAXIAL          0.0000          0.0000          0.0000          0.0000          0.0000          0.0000
       485        TRIAXIAL          0.0000          0.0000          0.0000          0.0000          0.0000          0.0000
       486        TRIAXIAL          0.0000          0.0000          0.0000          0.0000          0.0000          0.0000
       487        TRIAXIAL          0.0000          0.0000          0.0000          0.0000          0.0000          0.0000
       488        TRIAXIAL          0.0000          0.0000          0.0000          0.0000          0.0000          0.0000
       489        TRIAXIAL          0.0000          0.0000          0.0000          0.0000          0.0000          0.0000
       490        TRIAXIAL          0.0000          0.0000          0.0000          0.0000          0.0000          0.0000
       491        TRIAXIAL          0.0000          0.0000          0.0000          0.0000          0.0000          0.0000
       492        TRIAXIAL          0.0000          0.0000          0.0000          0.0000          0.0000          0.0000
       493        TRIAXIAL          0.0000          0.0000          0.0000          0.0000          0.0000          0.0000
       494        TRIAXIAL          0.0000          0.0000          0.0000          0.0000          0.0000          0.0000
       495        TRIAXIAL          0.0000          0.0000          0.0000          0.0000          0.0000          0.0000
       496        TRIAXIAL          0.0000          0.0000          0.0000          0.0000          0.0000          0.0000
       497        TRIAXIAL          0.0000          0.0000          0.0000          0.0000          0.0000          0.0000
       498        TRIAXIAL          0.0000          0.0000          0.0000          0.0000          0.0000          0.0000
       499        TRIAXIAL          0.0000          0.0000          0.0000          0.0000          0.0000          0.0000
       500        TRIAXIAL          0.0000          0.0000          0.0000          0.0000          0.0000          0.0000
       501        TRIAXIAL          0.0000          0.0000          0.0000          0.0000          0.0000          0.0000
       502        TRIAXIAL          0.0000          0.0000          0.0000          0.0000          0.0000          0.0000
       503        TRIAXIAL          0.0000          0.0000          0.0000          0.0000          0.0000          0.0000
       504        TRIAXIAL          0.0000          0.0000          0.0000          0.0000          0.0000          0.0000
       505        TRIAXIAL          0.0000          0.0000          0.0000          0.0000          0.0000          0.0000
       506        TRIAXIAL          0.0000          0.0000          0.0000          0.0000          0.0000          0.0000
       792        TRIAXIAL          0.0000          0.0000          0.0000          0.0000          0.0000          0.0000
       793        TRIAXIAL          0.0000          0.0000          0.0000          0.0000          0.0000          0.0000
       794        TRIAXIAL          0.0000          0.0000          0.0000          0.0000          0.0000          0.0000
       795        TRIAXIAL          0.0000          0.0000          0.0000          0.0000          0.0000          0.0000
       796        TRIAXIAL          0.0000          0.0000          0.0000          0.0000          0.0000          0.0000
       797        TRIAXIAL          0.0000          0.0000          0.0000          0.0000          0.0000          0.0000
       798        TRIAXIAL          0.0000          0.0000          0.0000          0.0000          0.0000          0.0000
       799        TRIAXIAL          0.0000          0.0000          0.0000          0.0000          0.0000          0.0000
       800        TRIAXIAL          0.0000          0.0000          0.0000          0.0000          0.0000          0.0000
       801        TRIAXIAL          0.0000          0.0000          0.0000          0.0000          0.0000          0.0000
       802        TRIAXIAL          0.0000          0.0000          0.0000          0.0000          0.0000          0.0000
       803        TRIAXIAL          0.0000          0.0000          0.0000          0.0000          0.0000          0.0000
       804        TRIAXIAL          0.0000          0.0000          0.0000          0.0000          0.0000          0.0000
       805        TRIAXIAL          0.0000          0.0000          0.0000          0.0000          0.0000          0.0000
       806        TRIAXIAL          0.0000          0.0000          0.0000          0.0000          0.0000          0.0000
       807        TRIAXIAL          0.0000          0.0000          0.0000          0.0000          0.0000          0.0000
       808        TRIAXIAL          0.0000          0.0000          0.0000          0.0000          0.0000          0.0000
       809        TRIAXIAL          0.0000          0.0000          0.0000          0.0000          0.0000          0.0000
       810        TRIAXIAL          0.0000          0.0000          0.0000          0.0000          0.0000          0.0000
       811        TRIAXIAL          0.0000          0.0000          0.0000          0.0000          0.0000          0.0000
       812        TRIAXIAL          0.0000          0.0000          0.0000          0.0000          0.0000          0.0000
       813        TRIAXIAL          0.0000          0.0000          0.0000          0.0000          0.0000          0.0000
       814        TRIAXIAL          0.0000          0.0000          0.0000          0.0000          0.0000          0.0000
