Eta        RadialPos [m] Sigma_xx [MPa]  Sigma_yy [MPa]  Sigma_xy [MPa]  Sigma_xz [MPa]  Sigma_yz [MPa]  Sigma_zz [MPa]  
0.20690    17.5034        0.0000          0.0000          0.0000          0.0000          0.0000          0.0000          
0.24138    20.2207        0.0000          0.0000          0.0000          0.0000          0.0000          0.0000          
0.27586    22.9379        0.0000          0.0000          0.0000          0.0000          0.0000          0.0000          
0.31034    25.6552        0.0000          0.0000          0.0000          0.0000          0.0000          0.0000          
0.34483    28.3724        0.0000          0.0000          0.0000          0.0000          0.0000          0.0000          
0.37931    31.0897        0.0000          0.0000          0.0000          0.0000          0.0000          0.0000          
0.41379    33.8069        0.0000          0.0000          0.0000          0.0000          0.0000          0.0000          
0.44828    36.5241        0.0000          0.0000          0.0000          0.0000          0.0000          0.0000          
0.48276    39.2414        0.0000          0.0000          0.0000          0.0000          0.0000          0.0000          
0.51724    41.9586        0.0000          0.0000          0.0000          0.0000          0.0000          0.0000          
0.55172    44.6759        0.0000          0.0000          0.0000          0.0000          0.0000          0.0000          
0.58621    47.3931        0.0000          0.0000          0.0000          0.0000          0.0000          0.0000          
0.62069    50.1103        0.0000          0.0000          0.0000          0.0000          0.0000          0.0000          
0.65517    52.8276        0.0000          0.0000          0.0000          0.0000          0.0000          0.0000          
0.68966    55.5448        0.0000          0.0000          0.0000          0.0000          0.0000          0.0000          
0.72414    58.2621        0.0000          0.0000          0.0000          0.0000          0.0000          0.0000          
0.75862    60.9793        0.0000          0.0000          0.0000          0.0000          0.0000          0.0000          
0.79310    63.6966        0.0000          0.0000          0.0000          0.0000          0.0000          0.0000          
