Eta        RadialPos [m] Sigma_xx [MPa]  Sigma_yy [MPa]  Sigma_xy [MPa]  Sigma_xz [MPa]  Sigma_yz [MPa]  Sigma_zz [MPa]  
0.20690    15.3517        0.0000          0.0000          0.0000          0.0000          0.0000          0.0000          
0.24138    17.7103        0.0000          0.0000          0.0000          0.0000          0.0000          0.0000          
0.27586    20.0690        0.0000          0.0000          0.0000          0.0000          0.0000          0.0000          
0.31034    22.4276        0.0000          0.0000          0.0000          0.0000          0.0000          0.0000          
0.34483    24.7862        0.0000          0.0000          0.0000          0.0000          0.0000          0.0000          
0.37931    27.1448        0.0000          0.0000          0.0000          0.0000          0.0000          0.0000          
0.41379    29.5034        0.0000          0.0000          0.0000          0.0000          0.0000          0.0000          
0.44828    31.8621        0.0000          0.0000          0.0000          0.0000          0.0000          0.0000          
0.48276    34.2207        0.0000          0.0000          0.0000          0.0000          0.0000          0.0000          
0.51724    36.5793        0.0000          0.0000          0.0000          0.0000          0.0000          0.0000          
0.55172    38.9379        0.0000          0.0000          0.0000          0.0000          0.0000          0.0000          
0.58621    41.2966        0.0000          0.0000          0.0000          0.0000          0.0000          0.0000          
0.62069    43.6552        0.0000          0.0000          0.0000          0.0000          0.0000          0.0000          
0.65517    46.0138        0.0000          0.0000          0.0000          0.0000          0.0000          0.0000          
0.68966    48.3724        0.0000          0.0000          0.0000          0.0000          0.0000          0.0000          
0.72414    50.7310        0.0000          0.0000          0.0000          0.0000          0.0000          0.0000          
0.75862    53.0897        0.0000          0.0000          0.0000          0.0000          0.0000          0.0000          
0.79310    55.4483        0.0000          0.0000          0.0000          0.0000          0.0000          0.0000          
